# LAMMPS data file written by OVITO Pro 3.12.1

15040 atoms
4 atom types

-30.0675 33.2325 xlo xhi
-30.0675 33.2325 ylo yhi
-30.0675 33.2325 zlo zhi

Masses

1 183.84  # W
2 1.0  # Type 2
3 1.0  # Type 3
4 1.0  # Type 4

Atoms  # atomic

1 4 -30.0675 -30.0675 -30.0675
2 1 -28.485 -28.485 -28.485
3 4 -30.0675 -30.0675 -26.9025
4 4 -28.485 -28.485 -25.32
5 3 -30.0675 -30.0675 -23.7375
6 4 -28.485 -28.485 -22.155
7 4 -30.0675 -30.0675 -20.5725
8 2 -30.0675 -30.0675 -17.4075
9 2 -28.485 -28.485 -15.825
10 2 -30.0675 -30.0675 -14.2425
11 2 -28.485 -28.485 -12.66
12 2 -28.485 -28.485 -9.495
13 2 -30.0675 -30.0675 -7.9125
14 2 -28.485 -28.485 -6.33
15 2 -30.0675 -30.0675 -1.5825
16 2 -28.485 -28.485 0.0
17 1 -30.0675 -30.0675 1.5825
18 4 -28.485 -28.485 3.165
19 1 -30.0675 -30.0675 4.7475
20 3 -28.485 -28.485 6.33
21 4 -30.0675 -30.0675 7.9125
22 1 -28.485 -28.485 9.495
23 3 -30.0675 -30.0675 11.0775
24 3 -28.485 -28.485 12.66
25 2 -30.0675 -30.0675 14.2425
26 1 -28.485 -28.485 15.825
27 2 -30.0675 -30.0675 17.4075
28 2 -28.485 -28.485 18.99
29 4 -30.0675 -30.0675 20.5725
30 3 -28.485 -28.485 22.155
31 1 -30.0675 -30.0675 23.7375
32 2 -28.485 -28.485 25.32
33 1 -28.485 -28.485 28.485
34 1 -30.0675 -30.0675 30.0675
35 4 -28.485 -28.485 31.65
36 2 -30.0675 -26.9025 -30.0675
37 4 -28.485 -25.32 -28.485
38 3 -30.0675 -26.9025 -26.9025
39 4 -28.485 -25.32 -25.32
40 3 -30.0675 -26.9025 -23.7375
41 1 -28.485 -25.32 -22.155
42 2 -28.485 -25.32 -18.99
43 3 -30.0675 -26.9025 -17.4075
44 4 -28.485 -25.32 -15.825
45 4 -30.0675 -26.9025 -14.2425
46 2 -28.485 -25.32 -12.66
47 3 -30.0675 -26.9025 -11.0775
48 1 -30.0675 -26.9025 -7.9125
49 1 -28.485 -25.32 -6.33
50 2 -30.0675 -26.9025 -4.7475
51 3 -28.485 -25.32 -3.165
52 4 -30.0675 -26.9025 -1.5825
53 4 -28.485 -25.32 0.0
54 4 -30.0675 -26.9025 1.5825
55 3 -28.485 -25.32 3.165
56 2 -30.0675 -26.9025 4.7475
57 2 -28.485 -25.32 6.33
58 2 -30.0675 -26.9025 7.9125
59 3 -28.485 -25.32 9.495
60 2 -30.0675 -26.9025 11.0775
61 4 -28.485 -25.32 12.66
62 1 -30.0675 -26.9025 14.2425
63 2 -28.485 -25.32 15.825
64 4 -30.0675 -26.9025 17.4075
65 2 -28.485 -25.32 18.99
66 4 -30.0675 -26.9025 20.5725
67 2 -28.485 -25.32 22.155
68 2 -30.0675 -26.9025 23.7375
69 2 -28.485 -25.32 25.32
70 3 -30.0675 -26.9025 26.9025
71 1 -28.485 -25.32 28.485
72 2 -30.0675 -26.9025 30.0675
73 4 -28.485 -25.32 31.65
74 4 -30.0675 -23.7375 -30.0675
75 1 -28.485 -22.155 -28.485
76 1 -30.0675 -23.7375 -26.9025
77 3 -28.485 -22.155 -25.32
78 3 -30.0675 -23.7375 -23.7375
79 4 -28.485 -22.155 -22.155
80 3 -30.0675 -23.7375 -20.5725
81 4 -28.485 -22.155 -18.99
82 3 -30.0675 -23.7375 -17.4075
83 2 -28.485 -22.155 -15.825
84 3 -30.0675 -23.7375 -14.2425
85 2 -28.485 -22.155 -12.66
86 4 -30.0675 -23.7375 -11.0775
87 1 -28.485 -22.155 -9.495
88 3 -30.0675 -23.7375 -7.9125
89 4 -28.485 -22.155 -6.33
90 4 -30.0675 -23.7375 -4.7475
91 2 -28.485 -22.155 -3.165
92 2 -30.0675 -23.7375 -1.5825
93 1 -28.485 -22.155 0.0
94 3 -30.0675 -23.7375 1.5825
95 1 -28.485 -22.155 3.165
96 2 -30.0675 -23.7375 4.7475
97 1 -28.485 -22.155 6.33
98 4 -30.0675 -23.7375 7.9125
99 2 -28.485 -22.155 9.495
100 4 -28.485 -22.155 12.66
101 1 -30.0675 -23.7375 14.2425
102 2 -28.485 -22.155 15.825
103 1 -30.0675 -23.7375 17.4075
104 4 -30.0675 -23.7375 20.5725
105 4 -28.485 -22.155 22.155
106 4 -30.0675 -23.7375 23.7375
107 1 -30.0675 -23.7375 26.9025
108 4 -28.485 -22.155 28.485
109 3 -30.0675 -23.7375 30.0675
110 2 -28.485 -22.155 31.65
111 4 -30.0675 -20.5725 -30.0675
112 1 -28.485 -18.99 -28.485
113 3 -30.0675 -20.5725 -23.7375
114 2 -28.485 -18.99 -22.155
115 1 -30.0675 -20.5725 -20.5725
116 2 -28.485 -18.99 -18.99
117 3 -30.0675 -20.5725 -17.4075
118 1 -28.485 -18.99 -15.825
119 1 -30.0675 -20.5725 -14.2425
120 2 -28.485 -18.99 -12.66
121 1 -30.0675 -20.5725 -11.0775
122 1 -28.485 -18.99 -9.495
123 2 -30.0675 -20.5725 -7.9125
124 3 -28.485 -18.99 -6.33
125 1 -30.0675 -20.5725 -4.7475
126 3 -28.485 -18.99 -3.165
127 1 -30.0675 -20.5725 -1.5825
128 4 -28.485 -18.99 0.0
129 4 -30.0675 -20.5725 1.5825
130 3 -28.485 -18.99 3.165
131 1 -30.0675 -20.5725 4.7475
132 1 -28.485 -18.99 6.33
133 3 -30.0675 -20.5725 7.9125
134 4 -28.485 -18.99 9.495
135 2 -30.0675 -20.5725 11.0775
136 4 -28.485 -18.99 12.66
137 2 -30.0675 -20.5725 14.2425
138 4 -28.485 -18.99 15.825
139 1 -30.0675 -20.5725 17.4075
140 3 -28.485 -18.99 18.99
141 2 -28.485 -18.99 22.155
142 3 -28.485 -18.99 25.32
143 3 -30.0675 -20.5725 26.9025
144 2 -28.485 -18.99 28.485
145 3 -28.485 -18.99 31.65
146 4 -30.0675 -17.4075 -30.0675
147 2 -30.0675 -17.4075 -26.9025
148 4 -28.485 -15.825 -25.32
149 3 -30.0675 -17.4075 -23.7375
150 2 -28.485 -15.825 -22.155
151 3 -30.0675 -17.4075 -20.5725
152 4 -28.485 -15.825 -18.99
153 3 -30.0675 -17.4075 -17.4075
154 4 -28.485 -15.825 -15.825
155 1 -30.0675 -17.4075 -14.2425
156 2 -28.485 -15.825 -12.66
157 2 -30.0675 -17.4075 -11.0775
158 1 -28.485 -15.825 -9.495
159 4 -28.485 -15.825 -6.33
160 3 -30.0675 -17.4075 -4.7475
161 1 -28.485 -15.825 -3.165
162 3 -30.0675 -17.4075 -1.5825
163 1 -28.485 -15.825 0.0
164 3 -30.0675 -17.4075 1.5825
165 3 -28.485 -15.825 3.165
166 4 -30.0675 -17.4075 4.7475
167 3 -28.485 -15.825 6.33
168 4 -30.0675 -17.4075 7.9125
169 4 -28.485 -15.825 9.495
170 2 -30.0675 -17.4075 11.0775
171 3 -28.485 -15.825 12.66
172 2 -30.0675 -17.4075 14.2425
173 2 -28.485 -15.825 15.825
174 3 -30.0675 -17.4075 17.4075
175 3 -28.485 -15.825 18.99
176 2 -30.0675 -17.4075 20.5725
177 4 -28.485 -15.825 22.155
178 3 -30.0675 -17.4075 23.7375
179 3 -28.485 -15.825 25.32
180 3 -30.0675 -17.4075 26.9025
181 2 -28.485 -15.825 28.485
182 2 -30.0675 -17.4075 30.0675
183 1 -28.485 -15.825 31.65
184 1 -30.0675 -14.2425 -30.0675
185 2 -28.485 -12.66 -28.485
186 4 -30.0675 -14.2425 -26.9025
187 1 -28.485 -12.66 -25.32
188 3 -30.0675 -14.2425 -23.7375
189 3 -28.485 -12.66 -22.155
190 4 -30.0675 -14.2425 -20.5725
191 2 -28.485 -12.66 -18.99
192 4 -30.0675 -14.2425 -17.4075
193 3 -28.485 -12.66 -15.825
194 3 -30.0675 -14.2425 -14.2425
195 2 -28.485 -12.66 -12.66
196 4 -30.0675 -14.2425 -11.0775
197 3 -28.485 -12.66 -9.495
198 2 -30.0675 -14.2425 -7.9125
199 2 -30.0675 -14.2425 -4.7475
200 1 -28.485 -12.66 -3.165
201 3 -30.0675 -14.2425 -1.5825
202 2 -28.485 -12.66 0.0
203 2 -30.0675 -14.2425 1.5825
204 1 -28.485 -12.66 3.165
205 1 -30.0675 -14.2425 4.7475
206 4 -28.485 -12.66 6.33
207 2 -30.0675 -14.2425 7.9125
208 4 -28.485 -12.66 9.495
209 2 -30.0675 -14.2425 11.0775
210 2 -28.485 -12.66 12.66
211 2 -30.0675 -14.2425 14.2425
212 4 -28.485 -12.66 15.825
213 1 -28.485 -12.66 18.99
214 3 -30.0675 -14.2425 20.5725
215 2 -28.485 -12.66 22.155
216 1 -30.0675 -14.2425 23.7375
217 4 -28.485 -12.66 25.32
218 1 -30.0675 -14.2425 26.9025
219 3 -28.485 -12.66 28.485
220 2 -30.0675 -14.2425 30.0675
221 4 -28.485 -12.66 31.65
222 2 -30.0675 -11.0775 -30.0675
223 4 -28.485 -9.495 -28.485
224 4 -30.0675 -11.0775 -26.9025
225 1 -28.485 -9.495 -25.32
226 2 -30.0675 -11.0775 -23.7375
227 4 -28.485 -9.495 -22.155
228 4 -30.0675 -11.0775 -20.5725
229 1 -28.485 -9.495 -18.99
230 3 -28.485 -9.495 -15.825
231 3 -28.485 -9.495 -12.66
232 3 -30.0675 -11.0775 -11.0775
233 2 -28.485 -9.495 -9.495
234 3 -30.0675 -11.0775 -7.9125
235 3 -28.485 -9.495 -6.33
236 1 -30.0675 -11.0775 -4.7475
237 1 -28.485 -9.495 -3.165
238 3 -30.0675 -11.0775 1.5825
239 4 -28.485 -9.495 3.165
240 1 -30.0675 -11.0775 4.7475
241 1 -28.485 -9.495 6.33
242 3 -30.0675 -11.0775 7.9125
243 2 -28.485 -9.495 9.495
244 4 -30.0675 -11.0775 11.0775
245 2 -28.485 -9.495 12.66
246 4 -30.0675 -11.0775 14.2425
247 2 -28.485 -9.495 15.825
248 3 -30.0675 -11.0775 17.4075
249 2 -28.485 -9.495 18.99
250 1 -30.0675 -11.0775 20.5725
251 1 -28.485 -9.495 22.155
252 2 -30.0675 -11.0775 23.7375
253 4 -28.485 -9.495 25.32
254 3 -30.0675 -11.0775 26.9025
255 1 -28.485 -9.495 28.485
256 3 -30.0675 -11.0775 30.0675
257 4 -28.485 -9.495 31.65
258 4 -30.0675 -7.9125 -30.0675
259 4 -30.0675 -7.9125 -26.9025
260 2 -28.485 -6.33 -25.32
261 3 -30.0675 -7.9125 -23.7375
262 2 -28.485 -6.33 -22.155
263 2 -30.0675 -7.9125 -20.5725
264 1 -28.485 -6.33 -18.99
265 4 -30.0675 -7.9125 -17.4075
266 1 -28.485 -6.33 -15.825
267 2 -30.0675 -7.9125 -14.2425
268 3 -28.485 -6.33 -12.66
269 1 -30.0675 -7.9125 -11.0775
270 3 -28.485 -6.33 -9.495
271 1 -30.0675 -7.9125 -7.9125
272 1 -28.485 -6.33 -6.33
273 2 -30.0675 -7.9125 -4.7475
274 4 -28.485 -6.33 -3.165
275 2 -30.0675 -7.9125 -1.5825
276 3 -28.485 -6.33 0.0
277 4 -30.0675 -7.9125 1.5825
278 4 -28.485 -6.33 3.165
279 1 -30.0675 -7.9125 4.7475
280 1 -28.485 -6.33 6.33
281 3 -30.0675 -7.9125 7.9125
282 4 -28.485 -6.33 9.495
283 4 -30.0675 -7.9125 11.0775
284 4 -28.485 -6.33 12.66
285 4 -30.0675 -7.9125 14.2425
286 4 -28.485 -6.33 15.825
287 2 -30.0675 -7.9125 17.4075
288 1 -28.485 -6.33 18.99
289 4 -28.485 -6.33 22.155
290 2 -30.0675 -7.9125 23.7375
291 1 -28.485 -6.33 25.32
292 1 -30.0675 -7.9125 26.9025
293 2 -28.485 -6.33 28.485
294 2 -30.0675 -7.9125 30.0675
295 4 -28.485 -6.33 31.65
296 2 -30.0675 -4.7475 -30.0675
297 3 -28.485 -3.165 -28.485
298 1 -30.0675 -4.7475 -26.9025
299 4 -28.485 -3.165 -25.32
300 3 -30.0675 -4.7475 -23.7375
301 4 -28.485 -3.165 -22.155
302 2 -30.0675 -4.7475 -20.5725
303 3 -28.485 -3.165 -18.99
304 3 -30.0675 -4.7475 -17.4075
305 1 -30.0675 -4.7475 -14.2425
306 2 -28.485 -3.165 -12.66
307 3 -30.0675 -4.7475 -11.0775
308 1 -28.485 -3.165 -9.495
309 2 -30.0675 -4.7475 -7.9125
310 2 -28.485 -3.165 -6.33
311 2 -30.0675 -4.7475 -4.7475
312 2 -28.485 -3.165 -3.165
313 4 -30.0675 -4.7475 -1.5825
314 2 -28.485 -3.165 0.0
315 3 -30.0675 -4.7475 1.5825
316 3 -28.485 -3.165 3.165
317 2 -30.0675 -4.7475 4.7475
318 2 -28.485 -3.165 6.33
319 2 -30.0675 -4.7475 7.9125
320 2 -28.485 -3.165 9.495
321 2 -30.0675 -4.7475 11.0775
322 1 -28.485 -3.165 12.66
323 1 -30.0675 -4.7475 14.2425
324 4 -28.485 -3.165 15.825
325 3 -30.0675 -4.7475 17.4075
326 3 -28.485 -3.165 18.99
327 1 -30.0675 -4.7475 20.5725
328 4 -30.0675 -4.7475 23.7375
329 4 -28.485 -3.165 25.32
330 4 -30.0675 -4.7475 26.9025
331 1 -28.485 -3.165 28.485
332 1 -30.0675 -4.7475 30.0675
333 4 -28.485 -3.165 31.65
334 3 -30.0675 -1.5825 -30.0675
335 3 -28.485 0.0 -28.485
336 1 -30.0675 -1.5825 -26.9025
337 4 -28.485 0.0 -25.32
338 1 -30.0675 -1.5825 -23.7375
339 3 -28.485 0.0 -22.155
340 1 -30.0675 -1.5825 -20.5725
341 4 -28.485 0.0 -18.99
342 4 -30.0675 -1.5825 -17.4075
343 2 -28.485 0.0 -15.825
344 4 -30.0675 -1.5825 -14.2425
345 4 -28.485 0.0 -12.66
346 2 -30.0675 -1.5825 -11.0775
347 4 -28.485 0.0 -9.495
348 4 -30.0675 -1.5825 -7.9125
349 1 -28.485 0.0 -6.33
350 4 -28.485 0.0 -3.165
351 3 -28.485 0.0 0.0
352 2 -30.0675 -1.5825 1.5825
353 1 -28.485 0.0 3.165
354 1 -30.0675 -1.5825 4.7475
355 4 -28.485 0.0 6.33
356 2 -30.0675 -1.5825 7.9125
357 1 -28.485 0.0 9.495
358 1 -30.0675 -1.5825 11.0775
359 2 -28.485 0.0 12.66
360 2 -30.0675 -1.5825 14.2425
361 2 -28.485 0.0 15.825
362 2 -30.0675 -1.5825 17.4075
363 3 -28.485 0.0 18.99
364 4 -30.0675 -1.5825 20.5725
365 3 -28.485 0.0 22.155
366 1 -30.0675 -1.5825 23.7375
367 4 -28.485 0.0 25.32
368 1 -30.0675 -1.5825 26.9025
369 3 -28.485 0.0 28.485
370 1 -28.485 0.0 31.65
371 4 -30.0675 1.5825 -30.0675
372 3 -28.485 3.165 -28.485
373 3 -30.0675 1.5825 -26.9025
374 1 -28.485 3.165 -25.32
375 1 -30.0675 1.5825 -23.7375
376 2 -28.485 3.165 -22.155
377 3 -28.485 3.165 -18.99
378 3 -30.0675 1.5825 -17.4075
379 3 -28.485 3.165 -15.825
380 1 -30.0675 1.5825 -14.2425
381 3 -28.485 3.165 -12.66
382 2 -30.0675 1.5825 -11.0775
383 3 -28.485 3.165 -9.495
384 1 -30.0675 1.5825 -7.9125
385 1 -28.485 3.165 -6.33
386 3 -28.485 3.165 -3.165
387 3 -30.0675 1.5825 -1.5825
388 3 -28.485 3.165 0.0
389 2 -30.0675 1.5825 1.5825
390 2 -28.485 3.165 3.165
391 4 -30.0675 1.5825 4.7475
392 3 -28.485 3.165 6.33
393 3 -30.0675 1.5825 7.9125
394 4 -28.485 3.165 9.495
395 4 -30.0675 1.5825 11.0775
396 2 -28.485 3.165 12.66
397 4 -30.0675 1.5825 14.2425
398 1 -28.485 3.165 15.825
399 2 -30.0675 1.5825 17.4075
400 1 -28.485 3.165 18.99
401 4 -30.0675 1.5825 20.5725
402 3 -28.485 3.165 22.155
403 4 -30.0675 1.5825 23.7375
404 2 -28.485 3.165 25.32
405 2 -30.0675 1.5825 26.9025
406 2 -30.0675 1.5825 30.0675
407 4 -28.485 3.165 31.65
408 4 -30.0675 4.7475 -30.0675
409 2 -28.485 6.33 -28.485
410 1 -30.0675 4.7475 -26.9025
411 2 -28.485 6.33 -25.32
412 1 -30.0675 4.7475 -23.7375
413 3 -28.485 6.33 -22.155
414 1 -30.0675 4.7475 -20.5725
415 4 -28.485 6.33 -18.99
416 3 -30.0675 4.7475 -17.4075
417 2 -28.485 6.33 -15.825
418 1 -30.0675 4.7475 -14.2425
419 2 -28.485 6.33 -12.66
420 2 -30.0675 4.7475 -11.0775
421 1 -28.485 6.33 -9.495
422 3 -28.485 6.33 -6.33
423 3 -30.0675 4.7475 -4.7475
424 3 -28.485 6.33 -3.165
425 4 -30.0675 4.7475 -1.5825
426 1 -28.485 6.33 0.0
427 2 -30.0675 4.7475 1.5825
428 4 -28.485 6.33 3.165
429 4 -30.0675 4.7475 4.7475
430 3 -28.485 6.33 6.33
431 4 -30.0675 4.7475 7.9125
432 1 -28.485 6.33 9.495
433 3 -30.0675 4.7475 11.0775
434 3 -28.485 6.33 12.66
435 1 -30.0675 4.7475 17.4075
436 3 -28.485 6.33 18.99
437 1 -30.0675 4.7475 20.5725
438 3 -28.485 6.33 22.155
439 3 -30.0675 4.7475 23.7375
440 4 -28.485 6.33 25.32
441 4 -30.0675 4.7475 26.9025
442 4 -28.485 6.33 28.485
443 3 -30.0675 4.7475 30.0675
444 2 -28.485 6.33 31.65
445 2 -30.0675 7.9125 -30.0675
446 4 -30.0675 7.9125 -26.9025
447 2 -28.485 9.495 -25.32
448 3 -30.0675 7.9125 -23.7375
449 2 -28.485 9.495 -22.155
450 3 -30.0675 7.9125 -20.5725
451 4 -28.485 9.495 -18.99
452 1 -30.0675 7.9125 -17.4075
453 2 -28.485 9.495 -15.825
454 2 -30.0675 7.9125 -14.2425
455 1 -28.485 9.495 -12.66
456 1 -30.0675 7.9125 -11.0775
457 1 -28.485 9.495 -9.495
458 4 -30.0675 7.9125 -7.9125
459 4 -28.485 9.495 -6.33
460 3 -30.0675 7.9125 -4.7475
461 2 -28.485 9.495 -3.165
462 4 -30.0675 7.9125 -1.5825
463 4 -28.485 9.495 0.0
464 3 -30.0675 7.9125 1.5825
465 1 -28.485 9.495 3.165
466 4 -30.0675 7.9125 4.7475
467 4 -28.485 9.495 6.33
468 4 -30.0675 7.9125 7.9125
469 2 -28.485 9.495 9.495
470 4 -30.0675 7.9125 11.0775
471 1 -28.485 9.495 12.66
472 3 -30.0675 7.9125 14.2425
473 4 -28.485 9.495 15.825
474 4 -30.0675 7.9125 17.4075
475 2 -28.485 9.495 18.99
476 4 -30.0675 7.9125 20.5725
477 4 -28.485 9.495 22.155
478 2 -30.0675 7.9125 23.7375
479 3 -28.485 9.495 25.32
480 1 -28.485 9.495 28.485
481 1 -30.0675 7.9125 30.0675
482 1 -28.485 9.495 31.65
483 3 -30.0675 11.0775 -30.0675
484 2 -28.485 12.66 -28.485
485 2 -30.0675 11.0775 -26.9025
486 2 -28.485 12.66 -25.32
487 3 -30.0675 11.0775 -23.7375
488 4 -28.485 12.66 -22.155
489 3 -30.0675 11.0775 -20.5725
490 2 -28.485 12.66 -18.99
491 1 -30.0675 11.0775 -17.4075
492 2 -30.0675 11.0775 -14.2425
493 3 -28.485 12.66 -12.66
494 4 -30.0675 11.0775 -11.0775
495 4 -28.485 12.66 -9.495
496 3 -30.0675 11.0775 -7.9125
497 4 -28.485 12.66 -6.33
498 1 -30.0675 11.0775 -4.7475
499 1 -28.485 12.66 -3.165
500 3 -30.0675 11.0775 -1.5825
501 1 -28.485 12.66 0.0
502 3 -30.0675 11.0775 1.5825
503 3 -28.485 12.66 3.165
504 3 -30.0675 11.0775 4.7475
505 3 -28.485 12.66 6.33
506 3 -30.0675 11.0775 7.9125
507 3 -28.485 12.66 9.495
508 3 -30.0675 11.0775 11.0775
509 3 -28.485 12.66 12.66
510 4 -30.0675 11.0775 14.2425
511 2 -28.485 12.66 15.825
512 1 -28.485 12.66 18.99
513 4 -30.0675 11.0775 20.5725
514 4 -28.485 12.66 22.155
515 3 -30.0675 11.0775 23.7375
516 1 -28.485 12.66 25.32
517 3 -30.0675 11.0775 26.9025
518 1 -30.0675 11.0775 30.0675
519 1 -28.485 12.66 31.65
520 3 -30.0675 14.2425 -30.0675
521 4 -28.485 15.825 -28.485
522 1 -30.0675 14.2425 -26.9025
523 3 -28.485 15.825 -25.32
524 4 -30.0675 14.2425 -23.7375
525 2 -28.485 15.825 -22.155
526 2 -30.0675 14.2425 -20.5725
527 1 -28.485 15.825 -18.99
528 3 -30.0675 14.2425 -17.4075
529 4 -28.485 15.825 -15.825
530 4 -30.0675 14.2425 -14.2425
531 3 -28.485 15.825 -12.66
532 3 -30.0675 14.2425 -11.0775
533 2 -28.485 15.825 -9.495
534 3 -30.0675 14.2425 -7.9125
535 2 -30.0675 14.2425 -4.7475
536 1 -28.485 15.825 -3.165
537 2 -30.0675 14.2425 -1.5825
538 1 -28.485 15.825 0.0
539 3 -30.0675 14.2425 1.5825
540 3 -28.485 15.825 3.165
541 1 -30.0675 14.2425 4.7475
542 2 -30.0675 14.2425 7.9125
543 2 -28.485 15.825 9.495
544 4 -30.0675 14.2425 11.0775
545 4 -28.485 15.825 12.66
546 4 -30.0675 14.2425 14.2425
547 3 -28.485 15.825 15.825
548 3 -30.0675 14.2425 17.4075
549 4 -28.485 15.825 18.99
550 3 -30.0675 14.2425 20.5725
551 3 -28.485 15.825 22.155
552 1 -30.0675 14.2425 23.7375
553 1 -28.485 15.825 25.32
554 2 -30.0675 14.2425 26.9025
555 3 -28.485 15.825 28.485
556 4 -30.0675 14.2425 30.0675
557 1 -28.485 15.825 31.65
558 2 -30.0675 17.4075 -30.0675
559 4 -28.485 18.99 -28.485
560 2 -30.0675 17.4075 -26.9025
561 2 -28.485 18.99 -25.32
562 4 -30.0675 17.4075 -23.7375
563 3 -28.485 18.99 -22.155
564 2 -30.0675 17.4075 -20.5725
565 3 -28.485 18.99 -18.99
566 4 -30.0675 17.4075 -17.4075
567 4 -28.485 18.99 -15.825
568 3 -30.0675 17.4075 -14.2425
569 2 -28.485 18.99 -12.66
570 3 -30.0675 17.4075 -11.0775
571 1 -28.485 18.99 -9.495
572 2 -30.0675 17.4075 -7.9125
573 2 -28.485 18.99 -6.33
574 2 -30.0675 17.4075 -4.7475
575 4 -28.485 18.99 -3.165
576 4 -30.0675 17.4075 -1.5825
577 1 -28.485 18.99 0.0
578 1 -30.0675 17.4075 1.5825
579 3 -28.485 18.99 3.165
580 3 -30.0675 17.4075 4.7475
581 4 -28.485 18.99 6.33
582 3 -30.0675 17.4075 7.9125
583 1 -28.485 18.99 9.495
584 3 -30.0675 17.4075 11.0775
585 4 -28.485 18.99 12.66
586 2 -30.0675 17.4075 14.2425
587 4 -28.485 18.99 15.825
588 2 -30.0675 17.4075 17.4075
589 3 -28.485 18.99 18.99
590 1 -30.0675 17.4075 20.5725
591 3 -28.485 18.99 22.155
592 1 -30.0675 17.4075 23.7375
593 4 -28.485 18.99 25.32
594 1 -30.0675 17.4075 26.9025
595 2 -28.485 18.99 28.485
596 4 -30.0675 17.4075 30.0675
597 3 -28.485 18.99 31.65
598 4 -30.0675 20.5725 -30.0675
599 1 -28.485 22.155 -28.485
600 4 -30.0675 20.5725 -26.9025
601 3 -28.485 22.155 -25.32
602 2 -30.0675 20.5725 -23.7375
603 3 -28.485 22.155 -22.155
604 1 -30.0675 20.5725 -20.5725
605 2 -28.485 22.155 -18.99
606 2 -30.0675 20.5725 -17.4075
607 1 -28.485 22.155 -15.825
608 4 -30.0675 20.5725 -14.2425
609 1 -28.485 22.155 -12.66
610 1 -30.0675 20.5725 -11.0775
611 3 -28.485 22.155 -9.495
612 3 -30.0675 20.5725 -7.9125
613 2 -28.485 22.155 -6.33
614 2 -30.0675 20.5725 -4.7475
615 1 -28.485 22.155 -3.165
616 4 -30.0675 20.5725 -1.5825
617 2 -28.485 22.155 0.0
618 3 -30.0675 20.5725 1.5825
619 3 -28.485 22.155 3.165
620 3 -30.0675 20.5725 4.7475
621 3 -28.485 22.155 6.33
622 1 -30.0675 20.5725 7.9125
623 3 -28.485 22.155 9.495
624 4 -30.0675 20.5725 11.0775
625 4 -28.485 22.155 12.66
626 1 -30.0675 20.5725 14.2425
627 3 -28.485 22.155 15.825
628 3 -30.0675 20.5725 17.4075
629 1 -28.485 22.155 18.99
630 1 -28.485 22.155 22.155
631 2 -30.0675 20.5725 23.7375
632 2 -28.485 22.155 25.32
633 1 -30.0675 20.5725 26.9025
634 4 -28.485 22.155 28.485
635 2 -28.485 22.155 31.65
636 1 -30.0675 23.7375 -30.0675
637 1 -28.485 25.32 -28.485
638 4 -30.0675 23.7375 -26.9025
639 2 -28.485 25.32 -25.32
640 3 -30.0675 23.7375 -23.7375
641 3 -30.0675 23.7375 -20.5725
642 2 -28.485 25.32 -18.99
643 3 -30.0675 23.7375 -17.4075
644 1 -30.0675 23.7375 -14.2425
645 4 -28.485 25.32 -12.66
646 1 -30.0675 23.7375 -11.0775
647 1 -28.485 25.32 -9.495
648 4 -30.0675 23.7375 -7.9125
649 4 -28.485 25.32 -6.33
650 1 -30.0675 23.7375 -4.7475
651 3 -28.485 25.32 -3.165
652 3 -30.0675 23.7375 -1.5825
653 1 -28.485 25.32 0.0
654 1 -30.0675 23.7375 1.5825
655 2 -28.485 25.32 3.165
656 2 -30.0675 23.7375 4.7475
657 2 -28.485 25.32 6.33
658 4 -30.0675 23.7375 7.9125
659 2 -28.485 25.32 9.495
660 2 -30.0675 23.7375 11.0775
661 4 -28.485 25.32 12.66
662 2 -30.0675 23.7375 14.2425
663 2 -28.485 25.32 15.825
664 4 -30.0675 23.7375 17.4075
665 4 -28.485 25.32 18.99
666 3 -30.0675 23.7375 20.5725
667 4 -28.485 25.32 22.155
668 1 -30.0675 23.7375 23.7375
669 2 -30.0675 23.7375 26.9025
670 2 -30.0675 23.7375 30.0675
671 3 -28.485 25.32 31.65
672 1 -30.0675 26.9025 -30.0675
673 1 -28.485 28.485 -28.485
674 3 -30.0675 26.9025 -26.9025
675 2 -28.485 28.485 -25.32
676 3 -30.0675 26.9025 -23.7375
677 3 -28.485 28.485 -22.155
678 1 -30.0675 26.9025 -20.5725
679 3 -28.485 28.485 -18.99
680 1 -30.0675 26.9025 -17.4075
681 4 -28.485 28.485 -15.825
682 2 -30.0675 26.9025 -14.2425
683 4 -28.485 28.485 -12.66
684 2 -30.0675 26.9025 -11.0775
685 1 -28.485 28.485 -9.495
686 1 -30.0675 26.9025 -7.9125
687 4 -28.485 28.485 -6.33
688 2 -30.0675 26.9025 -4.7475
689 1 -28.485 28.485 -3.165
690 4 -30.0675 26.9025 -1.5825
691 1 -28.485 28.485 0.0
692 4 -30.0675 26.9025 1.5825
693 1 -28.485 28.485 3.165
694 4 -30.0675 26.9025 4.7475
695 3 -28.485 28.485 6.33
696 1 -30.0675 26.9025 7.9125
697 3 -28.485 28.485 9.495
698 1 -30.0675 26.9025 11.0775
699 2 -28.485 28.485 12.66
700 4 -30.0675 26.9025 14.2425
701 2 -28.485 28.485 15.825
702 2 -28.485 28.485 18.99
703 1 -30.0675 26.9025 20.5725
704 3 -30.0675 26.9025 23.7375
705 2 -28.485 28.485 25.32
706 3 -28.485 28.485 28.485
707 4 -30.0675 26.9025 30.0675
708 3 -28.485 28.485 31.65
709 3 -28.485 31.65 -28.485
710 3 -30.0675 30.0675 -26.9025
711 4 -28.485 31.65 -25.32
712 4 -30.0675 30.0675 -23.7375
713 1 -28.485 31.65 -22.155
714 3 -30.0675 30.0675 -20.5725
715 3 -28.485 31.65 -18.99
716 2 -30.0675 30.0675 -17.4075
717 1 -28.485 31.65 -15.825
718 3 -30.0675 30.0675 -14.2425
719 4 -28.485 31.65 -12.66
720 3 -30.0675 30.0675 -11.0775
721 1 -28.485 31.65 -9.495
722 4 -30.0675 30.0675 -7.9125
723 3 -28.485 31.65 -6.33
724 2 -30.0675 30.0675 -4.7475
725 1 -28.485 31.65 -3.165
726 3 -30.0675 30.0675 -1.5825
727 3 -28.485 31.65 0.0
728 2 -30.0675 30.0675 1.5825
729 4 -28.485 31.65 3.165
730 3 -30.0675 30.0675 4.7475
731 4 -28.485 31.65 6.33
732 1 -30.0675 30.0675 7.9125
733 2 -28.485 31.65 9.495
734 4 -30.0675 30.0675 11.0775
735 4 -28.485 31.65 12.66
736 1 -30.0675 30.0675 14.2425
737 2 -28.485 31.65 15.825
738 2 -28.485 31.65 18.99
739 4 -28.485 31.65 22.155
740 1 -30.0675 30.0675 23.7375
741 3 -28.485 31.65 25.32
742 2 -30.0675 30.0675 26.9025
743 3 -28.485 31.65 28.485
744 1 -30.0675 30.0675 30.0675
745 2 -26.9025 -30.0675 -30.0675
746 4 -25.32 -28.485 -28.485
747 4 -26.9025 -30.0675 -26.9025
748 1 -25.32 -28.485 -25.32
749 2 -26.9025 -30.0675 -23.7375
750 2 -25.32 -28.485 -22.155
751 2 -26.9025 -30.0675 -20.5725
752 1 -25.32 -28.485 -18.99
753 2 -26.9025 -30.0675 -17.4075
754 4 -25.32 -28.485 -15.825
755 2 -26.9025 -30.0675 -14.2425
756 1 -25.32 -28.485 -12.66
757 2 -26.9025 -30.0675 -11.0775
758 4 -25.32 -28.485 -9.495
759 2 -26.9025 -30.0675 -7.9125
760 2 -25.32 -28.485 -6.33
761 1 -26.9025 -30.0675 -4.7475
762 4 -25.32 -28.485 -3.165
763 1 -26.9025 -30.0675 -1.5825
764 2 -25.32 -28.485 0.0
765 4 -25.32 -28.485 3.165
766 4 -26.9025 -30.0675 4.7475
767 3 -25.32 -28.485 6.33
768 3 -26.9025 -30.0675 7.9125
769 4 -25.32 -28.485 9.495
770 3 -26.9025 -30.0675 11.0775
771 3 -25.32 -28.485 12.66
772 1 -26.9025 -30.0675 14.2425
773 3 -25.32 -28.485 15.825
774 1 -26.9025 -30.0675 17.4075
775 4 -25.32 -28.485 18.99
776 4 -26.9025 -30.0675 20.5725
777 4 -25.32 -28.485 22.155
778 2 -26.9025 -30.0675 23.7375
779 2 -25.32 -28.485 25.32
780 4 -26.9025 -30.0675 26.9025
781 1 -25.32 -28.485 28.485
782 4 -26.9025 -30.0675 30.0675
783 1 -25.32 -28.485 31.65
784 2 -26.9025 -26.9025 -30.0675
785 2 -25.32 -25.32 -28.485
786 1 -26.9025 -26.9025 -26.9025
787 4 -25.32 -25.32 -25.32
788 3 -26.9025 -26.9025 -23.7375
789 4 -25.32 -25.32 -22.155
790 2 -26.9025 -26.9025 -20.5725
791 1 -25.32 -25.32 -18.99
792 4 -26.9025 -26.9025 -17.4075
793 2 -25.32 -25.32 -15.825
794 1 -26.9025 -26.9025 -14.2425
795 2 -25.32 -25.32 -12.66
796 2 -25.32 -25.32 -9.495
797 2 -26.9025 -26.9025 -7.9125
798 4 -25.32 -25.32 -6.33
799 2 -26.9025 -26.9025 -4.7475
800 3 -25.32 -25.32 -3.165
801 3 -26.9025 -26.9025 -1.5825
802 3 -25.32 -25.32 0.0
803 2 -26.9025 -26.9025 1.5825
804 4 -25.32 -25.32 3.165
805 1 -26.9025 -26.9025 4.7475
806 1 -25.32 -25.32 6.33
807 1 -26.9025 -26.9025 7.9125
808 1 -25.32 -25.32 9.495
809 2 -26.9025 -26.9025 11.0775
810 3 -25.32 -25.32 12.66
811 2 -26.9025 -26.9025 14.2425
812 3 -25.32 -25.32 15.825
813 4 -26.9025 -26.9025 17.4075
814 3 -25.32 -25.32 18.99
815 2 -26.9025 -26.9025 20.5725
816 3 -25.32 -25.32 22.155
817 3 -26.9025 -26.9025 23.7375
818 2 -25.32 -25.32 25.32
819 3 -26.9025 -26.9025 26.9025
820 1 -25.32 -25.32 28.485
821 3 -25.32 -25.32 31.65
822 2 -26.9025 -23.7375 -30.0675
823 3 -25.32 -22.155 -28.485
824 2 -26.9025 -23.7375 -26.9025
825 3 -25.32 -22.155 -25.32
826 4 -26.9025 -23.7375 -23.7375
827 2 -25.32 -22.155 -22.155
828 4 -26.9025 -23.7375 -20.5725
829 1 -25.32 -22.155 -18.99
830 3 -26.9025 -23.7375 -17.4075
831 3 -25.32 -22.155 -15.825
832 4 -26.9025 -23.7375 -14.2425
833 1 -25.32 -22.155 -12.66
834 4 -26.9025 -23.7375 -11.0775
835 2 -25.32 -22.155 -9.495
836 3 -26.9025 -23.7375 -7.9125
837 4 -25.32 -22.155 -6.33
838 2 -26.9025 -23.7375 -4.7475
839 4 -25.32 -22.155 -3.165
840 2 -26.9025 -23.7375 -1.5825
841 4 -25.32 -22.155 0.0
842 3 -26.9025 -23.7375 1.5825
843 2 -25.32 -22.155 3.165
844 1 -26.9025 -23.7375 4.7475
845 2 -25.32 -22.155 6.33
846 2 -26.9025 -23.7375 7.9125
847 1 -25.32 -22.155 9.495
848 1 -26.9025 -23.7375 11.0775
849 1 -25.32 -22.155 12.66
850 2 -26.9025 -23.7375 14.2425
851 3 -25.32 -22.155 15.825
852 4 -26.9025 -23.7375 17.4075
853 4 -25.32 -22.155 18.99
854 1 -26.9025 -23.7375 20.5725
855 4 -25.32 -22.155 22.155
856 2 -26.9025 -23.7375 23.7375
857 3 -26.9025 -23.7375 26.9025
858 1 -25.32 -22.155 28.485
859 3 -26.9025 -23.7375 30.0675
860 1 -25.32 -22.155 31.65
861 4 -26.9025 -20.5725 -30.0675
862 1 -25.32 -18.99 -28.485
863 2 -26.9025 -20.5725 -26.9025
864 2 -25.32 -18.99 -25.32
865 4 -26.9025 -20.5725 -23.7375
866 2 -25.32 -18.99 -22.155
867 2 -26.9025 -20.5725 -20.5725
868 4 -25.32 -18.99 -18.99
869 4 -26.9025 -20.5725 -17.4075
870 3 -25.32 -18.99 -15.825
871 1 -26.9025 -20.5725 -14.2425
872 2 -25.32 -18.99 -12.66
873 3 -26.9025 -20.5725 -11.0775
874 1 -25.32 -18.99 -9.495
875 2 -26.9025 -20.5725 -7.9125
876 3 -25.32 -18.99 -6.33
877 1 -26.9025 -20.5725 -4.7475
878 2 -25.32 -18.99 -3.165
879 4 -26.9025 -20.5725 -1.5825
880 3 -25.32 -18.99 0.0
881 3 -26.9025 -20.5725 1.5825
882 3 -26.9025 -20.5725 4.7475
883 2 -25.32 -18.99 6.33
884 1 -26.9025 -20.5725 7.9125
885 1 -25.32 -18.99 9.495
886 4 -26.9025 -20.5725 11.0775
887 4 -25.32 -18.99 12.66
888 1 -26.9025 -20.5725 14.2425
889 2 -25.32 -18.99 15.825
890 2 -26.9025 -20.5725 17.4075
891 3 -25.32 -18.99 18.99
892 1 -26.9025 -20.5725 20.5725
893 1 -25.32 -18.99 22.155
894 4 -26.9025 -20.5725 23.7375
895 2 -26.9025 -20.5725 26.9025
896 2 -25.32 -18.99 28.485
897 4 -26.9025 -20.5725 30.0675
898 3 -25.32 -18.99 31.65
899 4 -26.9025 -17.4075 -30.0675
900 3 -25.32 -15.825 -28.485
901 4 -26.9025 -17.4075 -26.9025
902 2 -25.32 -15.825 -25.32
903 1 -26.9025 -17.4075 -23.7375
904 3 -25.32 -15.825 -22.155
905 3 -26.9025 -17.4075 -20.5725
906 3 -25.32 -15.825 -18.99
907 1 -26.9025 -17.4075 -17.4075
908 1 -26.9025 -17.4075 -14.2425
909 2 -25.32 -15.825 -12.66
910 2 -26.9025 -17.4075 -11.0775
911 4 -25.32 -15.825 -9.495
912 2 -26.9025 -17.4075 -7.9125
913 2 -25.32 -15.825 -6.33
914 3 -26.9025 -17.4075 -4.7475
915 3 -25.32 -15.825 -3.165
916 3 -26.9025 -17.4075 -1.5825
917 4 -25.32 -15.825 0.0
918 3 -26.9025 -17.4075 1.5825
919 2 -25.32 -15.825 3.165
920 3 -26.9025 -17.4075 4.7475
921 1 -25.32 -15.825 6.33
922 2 -25.32 -15.825 9.495
923 1 -26.9025 -17.4075 11.0775
924 4 -25.32 -15.825 12.66
925 1 -26.9025 -17.4075 14.2425
926 2 -25.32 -15.825 15.825
927 2 -26.9025 -17.4075 17.4075
928 2 -25.32 -15.825 18.99
929 3 -26.9025 -17.4075 20.5725
930 4 -25.32 -15.825 22.155
931 2 -26.9025 -17.4075 23.7375
932 3 -25.32 -15.825 25.32
933 3 -26.9025 -17.4075 26.9025
934 2 -25.32 -15.825 28.485
935 4 -26.9025 -17.4075 30.0675
936 2 -25.32 -15.825 31.65
937 3 -26.9025 -14.2425 -30.0675
938 4 -25.32 -12.66 -28.485
939 4 -26.9025 -14.2425 -26.9025
940 4 -25.32 -12.66 -25.32
941 4 -26.9025 -14.2425 -23.7375
942 4 -25.32 -12.66 -22.155
943 3 -26.9025 -14.2425 -20.5725
944 2 -25.32 -12.66 -18.99
945 4 -26.9025 -14.2425 -17.4075
946 1 -25.32 -12.66 -15.825
947 3 -26.9025 -14.2425 -14.2425
948 1 -25.32 -12.66 -12.66
949 4 -26.9025 -14.2425 -11.0775
950 1 -26.9025 -14.2425 -7.9125
951 4 -25.32 -12.66 -6.33
952 2 -26.9025 -14.2425 -4.7475
953 1 -26.9025 -14.2425 -1.5825
954 3 -25.32 -12.66 0.0
955 3 -25.32 -12.66 3.165
956 4 -26.9025 -14.2425 4.7475
957 4 -25.32 -12.66 6.33
958 3 -26.9025 -14.2425 7.9125
959 2 -25.32 -12.66 9.495
960 4 -26.9025 -14.2425 11.0775
961 1 -25.32 -12.66 12.66
962 1 -26.9025 -14.2425 14.2425
963 4 -25.32 -12.66 15.825
964 2 -26.9025 -14.2425 17.4075
965 2 -25.32 -12.66 18.99
966 3 -26.9025 -14.2425 20.5725
967 2 -25.32 -12.66 22.155
968 3 -26.9025 -14.2425 23.7375
969 2 -25.32 -12.66 25.32
970 2 -26.9025 -14.2425 26.9025
971 4 -25.32 -12.66 28.485
972 1 -26.9025 -14.2425 30.0675
973 2 -25.32 -12.66 31.65
974 2 -26.9025 -11.0775 -30.0675
975 3 -25.32 -9.495 -28.485
976 4 -26.9025 -11.0775 -26.9025
977 1 -25.32 -9.495 -25.32
978 1 -26.9025 -11.0775 -23.7375
979 2 -25.32 -9.495 -22.155
980 1 -26.9025 -11.0775 -20.5725
981 1 -25.32 -9.495 -18.99
982 1 -26.9025 -11.0775 -17.4075
983 4 -25.32 -9.495 -15.825
984 2 -26.9025 -11.0775 -14.2425
985 2 -25.32 -9.495 -12.66
986 2 -26.9025 -11.0775 -11.0775
987 1 -25.32 -9.495 -9.495
988 4 -25.32 -9.495 -6.33
989 3 -26.9025 -11.0775 -4.7475
990 3 -25.32 -9.495 -3.165
991 4 -26.9025 -11.0775 -1.5825
992 4 -25.32 -9.495 0.0
993 1 -26.9025 -11.0775 1.5825
994 4 -25.32 -9.495 3.165
995 3 -26.9025 -11.0775 4.7475
996 4 -25.32 -9.495 6.33
997 4 -26.9025 -11.0775 7.9125
998 2 -25.32 -9.495 9.495
999 1 -26.9025 -11.0775 11.0775
1000 3 -25.32 -9.495 12.66
1001 1 -26.9025 -11.0775 14.2425
1002 2 -25.32 -9.495 15.825
1003 4 -26.9025 -11.0775 17.4075
1004 1 -25.32 -9.495 18.99
1005 4 -26.9025 -11.0775 20.5725
1006 3 -25.32 -9.495 22.155
1007 3 -26.9025 -11.0775 23.7375
1008 2 -26.9025 -11.0775 26.9025
1009 4 -25.32 -9.495 28.485
1010 4 -26.9025 -11.0775 30.0675
1011 1 -26.9025 -7.9125 -30.0675
1012 2 -25.32 -6.33 -28.485
1013 1 -26.9025 -7.9125 -26.9025
1014 3 -25.32 -6.33 -25.32
1015 1 -26.9025 -7.9125 -23.7375
1016 1 -25.32 -6.33 -22.155
1017 2 -26.9025 -7.9125 -20.5725
1018 1 -25.32 -6.33 -18.99
1019 2 -26.9025 -7.9125 -17.4075
1020 4 -25.32 -6.33 -15.825
1021 3 -26.9025 -7.9125 -14.2425
1022 3 -26.9025 -7.9125 -11.0775
1023 4 -25.32 -6.33 -9.495
1024 1 -26.9025 -7.9125 -7.9125
1025 3 -25.32 -6.33 -6.33
1026 4 -26.9025 -7.9125 -4.7475
1027 1 -25.32 -6.33 -3.165
1028 1 -26.9025 -7.9125 -1.5825
1029 4 -26.9025 -7.9125 1.5825
1030 1 -25.32 -6.33 3.165
1031 4 -26.9025 -7.9125 4.7475
1032 3 -25.32 -6.33 6.33
1033 1 -26.9025 -7.9125 7.9125
1034 4 -25.32 -6.33 9.495
1035 4 -26.9025 -7.9125 11.0775
1036 3 -26.9025 -7.9125 14.2425
1037 1 -25.32 -6.33 15.825
1038 1 -26.9025 -7.9125 17.4075
1039 3 -25.32 -6.33 18.99
1040 2 -26.9025 -7.9125 20.5725
1041 4 -25.32 -6.33 22.155
1042 1 -26.9025 -7.9125 23.7375
1043 4 -25.32 -6.33 25.32
1044 4 -26.9025 -7.9125 26.9025
1045 2 -26.9025 -7.9125 30.0675
1046 1 -25.32 -6.33 31.65
1047 4 -26.9025 -4.7475 -30.0675
1048 1 -25.32 -3.165 -28.485
1049 3 -26.9025 -4.7475 -26.9025
1050 1 -25.32 -3.165 -25.32
1051 2 -26.9025 -4.7475 -23.7375
1052 1 -25.32 -3.165 -22.155
1053 3 -25.32 -3.165 -18.99
1054 3 -26.9025 -4.7475 -17.4075
1055 1 -25.32 -3.165 -15.825
1056 3 -26.9025 -4.7475 -14.2425
1057 2 -25.32 -3.165 -12.66
1058 4 -26.9025 -4.7475 -11.0775
1059 4 -25.32 -3.165 -9.495
1060 2 -26.9025 -4.7475 -7.9125
1061 4 -25.32 -3.165 -6.33
1062 2 -26.9025 -4.7475 -4.7475
1063 4 -25.32 -3.165 -3.165
1064 1 -26.9025 -4.7475 -1.5825
1065 1 -25.32 -3.165 0.0
1066 2 -26.9025 -4.7475 1.5825
1067 4 -25.32 -3.165 3.165
1068 4 -26.9025 -4.7475 4.7475
1069 2 -25.32 -3.165 6.33
1070 4 -26.9025 -4.7475 7.9125
1071 4 -26.9025 -4.7475 11.0775
1072 2 -25.32 -3.165 12.66
1073 2 -26.9025 -4.7475 14.2425
1074 3 -25.32 -3.165 15.825
1075 2 -26.9025 -4.7475 17.4075
1076 2 -25.32 -3.165 18.99
1077 4 -26.9025 -4.7475 20.5725
1078 4 -25.32 -3.165 22.155
1079 3 -26.9025 -4.7475 23.7375
1080 3 -25.32 -3.165 25.32
1081 2 -26.9025 -4.7475 26.9025
1082 3 -25.32 -3.165 28.485
1083 2 -26.9025 -4.7475 30.0675
1084 4 -25.32 -3.165 31.65
1085 4 -26.9025 -1.5825 -30.0675
1086 1 -25.32 0.0 -28.485
1087 4 -26.9025 -1.5825 -26.9025
1088 1 -25.32 0.0 -25.32
1089 3 -26.9025 -1.5825 -23.7375
1090 3 -25.32 0.0 -22.155
1091 2 -26.9025 -1.5825 -20.5725
1092 3 -25.32 0.0 -18.99
1093 3 -26.9025 -1.5825 -17.4075
1094 2 -25.32 0.0 -15.825
1095 4 -26.9025 -1.5825 -14.2425
1096 2 -25.32 0.0 -12.66
1097 3 -26.9025 -1.5825 -11.0775
1098 2 -25.32 0.0 -9.495
1099 3 -26.9025 -1.5825 -7.9125
1100 1 -25.32 0.0 -6.33
1101 1 -26.9025 -1.5825 -4.7475
1102 1 -25.32 0.0 -3.165
1103 3 -26.9025 -1.5825 -1.5825
1104 2 -25.32 0.0 0.0
1105 1 -26.9025 -1.5825 1.5825
1106 1 -25.32 0.0 3.165
1107 3 -26.9025 -1.5825 4.7475
1108 3 -25.32 0.0 6.33
1109 4 -26.9025 -1.5825 7.9125
1110 3 -25.32 0.0 9.495
1111 4 -26.9025 -1.5825 11.0775
1112 2 -25.32 0.0 12.66
1113 4 -26.9025 -1.5825 14.2425
1114 3 -25.32 0.0 15.825
1115 1 -26.9025 -1.5825 17.4075
1116 2 -25.32 0.0 18.99
1117 3 -26.9025 -1.5825 20.5725
1118 1 -25.32 0.0 22.155
1119 1 -25.32 0.0 25.32
1120 4 -26.9025 -1.5825 26.9025
1121 3 -25.32 0.0 28.485
1122 1 -26.9025 -1.5825 30.0675
1123 1 -25.32 0.0 31.65
1124 3 -26.9025 1.5825 -30.0675
1125 4 -25.32 3.165 -28.485
1126 4 -26.9025 1.5825 -26.9025
1127 3 -25.32 3.165 -25.32
1128 1 -26.9025 1.5825 -23.7375
1129 1 -26.9025 1.5825 -20.5725
1130 4 -25.32 3.165 -18.99
1131 1 -26.9025 1.5825 -17.4075
1132 4 -25.32 3.165 -15.825
1133 4 -26.9025 1.5825 -14.2425
1134 1 -25.32 3.165 -12.66
1135 2 -26.9025 1.5825 -11.0775
1136 1 -25.32 3.165 -9.495
1137 2 -26.9025 1.5825 -7.9125
1138 1 -25.32 3.165 -6.33
1139 3 -26.9025 1.5825 -4.7475
1140 3 -26.9025 1.5825 -1.5825
1141 2 -25.32 3.165 0.0
1142 3 -26.9025 1.5825 1.5825
1143 2 -25.32 3.165 3.165
1144 3 -26.9025 1.5825 4.7475
1145 4 -25.32 3.165 6.33
1146 1 -26.9025 1.5825 7.9125
1147 4 -26.9025 1.5825 11.0775
1148 2 -25.32 3.165 12.66
1149 2 -26.9025 1.5825 14.2425
1150 3 -25.32 3.165 15.825
1151 3 -26.9025 1.5825 17.4075
1152 1 -25.32 3.165 18.99
1153 1 -26.9025 1.5825 20.5725
1154 1 -25.32 3.165 22.155
1155 3 -26.9025 1.5825 23.7375
1156 4 -25.32 3.165 25.32
1157 1 -26.9025 1.5825 26.9025
1158 4 -25.32 3.165 28.485
1159 3 -26.9025 1.5825 30.0675
1160 3 -25.32 3.165 31.65
1161 2 -26.9025 4.7475 -30.0675
1162 2 -25.32 6.33 -28.485
1163 4 -26.9025 4.7475 -26.9025
1164 2 -25.32 6.33 -25.32
1165 3 -26.9025 4.7475 -23.7375
1166 4 -25.32 6.33 -22.155
1167 2 -26.9025 4.7475 -20.5725
1168 2 -25.32 6.33 -18.99
1169 1 -26.9025 4.7475 -17.4075
1170 4 -25.32 6.33 -15.825
1171 1 -26.9025 4.7475 -14.2425
1172 2 -25.32 6.33 -12.66
1173 3 -26.9025 4.7475 -11.0775
1174 2 -25.32 6.33 -9.495
1175 3 -26.9025 4.7475 -7.9125
1176 4 -25.32 6.33 -6.33
1177 4 -26.9025 4.7475 -4.7475
1178 1 -25.32 6.33 -3.165
1179 2 -26.9025 4.7475 -1.5825
1180 4 -25.32 6.33 0.0
1181 4 -26.9025 4.7475 1.5825
1182 3 -25.32 6.33 3.165
1183 3 -26.9025 4.7475 4.7475
1184 2 -25.32 6.33 6.33
1185 2 -26.9025 4.7475 7.9125
1186 1 -25.32 6.33 9.495
1187 4 -26.9025 4.7475 11.0775
1188 1 -25.32 6.33 12.66
1189 3 -26.9025 4.7475 14.2425
1190 3 -26.9025 4.7475 17.4075
1191 3 -25.32 6.33 18.99
1192 1 -26.9025 4.7475 20.5725
1193 3 -25.32 6.33 22.155
1194 4 -26.9025 4.7475 23.7375
1195 1 -25.32 6.33 25.32
1196 4 -26.9025 4.7475 26.9025
1197 3 -26.9025 4.7475 30.0675
1198 4 -25.32 6.33 31.65
1199 4 -26.9025 7.9125 -30.0675
1200 1 -25.32 9.495 -28.485
1201 1 -26.9025 7.9125 -26.9025
1202 4 -25.32 9.495 -25.32
1203 3 -26.9025 7.9125 -23.7375
1204 1 -25.32 9.495 -22.155
1205 2 -26.9025 7.9125 -20.5725
1206 3 -25.32 9.495 -18.99
1207 2 -26.9025 7.9125 -17.4075
1208 4 -25.32 9.495 -15.825
1209 2 -26.9025 7.9125 -14.2425
1210 1 -25.32 9.495 -12.66
1211 2 -26.9025 7.9125 -11.0775
1212 1 -25.32 9.495 -9.495
1213 2 -26.9025 7.9125 -7.9125
1214 4 -25.32 9.495 -6.33
1215 1 -26.9025 7.9125 -4.7475
1216 2 -25.32 9.495 -3.165
1217 4 -26.9025 7.9125 -1.5825
1218 4 -25.32 9.495 0.0
1219 4 -26.9025 7.9125 1.5825
1220 4 -25.32 9.495 3.165
1221 3 -26.9025 7.9125 4.7475
1222 1 -25.32 9.495 6.33
1223 3 -26.9025 7.9125 7.9125
1224 2 -26.9025 7.9125 11.0775
1225 1 -25.32 9.495 12.66
1226 2 -26.9025 7.9125 14.2425
1227 2 -25.32 9.495 15.825
1228 1 -26.9025 7.9125 17.4075
1229 3 -26.9025 7.9125 20.5725
1230 3 -25.32 9.495 22.155
1231 2 -26.9025 7.9125 23.7375
1232 2 -25.32 9.495 25.32
1233 1 -26.9025 7.9125 26.9025
1234 4 -25.32 9.495 28.485
1235 2 -26.9025 7.9125 30.0675
1236 3 -25.32 9.495 31.65
1237 4 -26.9025 11.0775 -30.0675
1238 3 -25.32 12.66 -28.485
1239 3 -26.9025 11.0775 -26.9025
1240 2 -25.32 12.66 -25.32
1241 4 -26.9025 11.0775 -23.7375
1242 2 -25.32 12.66 -22.155
1243 1 -26.9025 11.0775 -20.5725
1244 4 -25.32 12.66 -18.99
1245 3 -26.9025 11.0775 -17.4075
1246 2 -25.32 12.66 -15.825
1247 3 -26.9025 11.0775 -14.2425
1248 4 -26.9025 11.0775 -11.0775
1249 4 -25.32 12.66 -9.495
1250 3 -26.9025 11.0775 -7.9125
1251 3 -25.32 12.66 -6.33
1252 3 -25.32 12.66 -3.165
1253 1 -26.9025 11.0775 -1.5825
1254 3 -25.32 12.66 0.0
1255 2 -26.9025 11.0775 1.5825
1256 3 -25.32 12.66 3.165
1257 3 -25.32 12.66 6.33
1258 4 -25.32 12.66 9.495
1259 1 -26.9025 11.0775 11.0775
1260 1 -25.32 12.66 12.66
1261 1 -26.9025 11.0775 14.2425
1262 2 -25.32 12.66 15.825
1263 2 -26.9025 11.0775 17.4075
1264 1 -25.32 12.66 18.99
1265 4 -26.9025 11.0775 20.5725
1266 4 -25.32 12.66 22.155
1267 4 -26.9025 11.0775 23.7375
1268 2 -25.32 12.66 25.32
1269 2 -26.9025 11.0775 26.9025
1270 3 -25.32 12.66 28.485
1271 2 -26.9025 11.0775 30.0675
1272 3 -25.32 12.66 31.65
1273 4 -26.9025 14.2425 -30.0675
1274 1 -25.32 15.825 -28.485
1275 2 -26.9025 14.2425 -26.9025
1276 1 -25.32 15.825 -25.32
1277 2 -26.9025 14.2425 -23.7375
1278 4 -25.32 15.825 -22.155
1279 3 -26.9025 14.2425 -20.5725
1280 2 -25.32 15.825 -18.99
1281 3 -26.9025 14.2425 -17.4075
1282 1 -25.32 15.825 -15.825
1283 3 -26.9025 14.2425 -14.2425
1284 3 -25.32 15.825 -12.66
1285 3 -26.9025 14.2425 -11.0775
1286 1 -25.32 15.825 -9.495
1287 2 -26.9025 14.2425 -7.9125
1288 2 -25.32 15.825 -6.33
1289 2 -25.32 15.825 -3.165
1290 2 -26.9025 14.2425 -1.5825
1291 4 -25.32 15.825 0.0
1292 2 -26.9025 14.2425 1.5825
1293 1 -25.32 15.825 3.165
1294 2 -26.9025 14.2425 4.7475
1295 1 -25.32 15.825 6.33
1296 2 -26.9025 14.2425 7.9125
1297 3 -25.32 15.825 9.495
1298 3 -26.9025 14.2425 11.0775
1299 4 -25.32 15.825 12.66
1300 4 -26.9025 14.2425 14.2425
1301 1 -25.32 15.825 15.825
1302 3 -26.9025 14.2425 17.4075
1303 1 -25.32 15.825 18.99
1304 3 -26.9025 14.2425 20.5725
1305 3 -25.32 15.825 22.155
1306 1 -26.9025 14.2425 23.7375
1307 1 -25.32 15.825 25.32
1308 3 -26.9025 14.2425 26.9025
1309 3 -25.32 15.825 28.485
1310 3 -25.32 15.825 31.65
1311 3 -26.9025 17.4075 -30.0675
1312 1 -25.32 18.99 -28.485
1313 3 -26.9025 17.4075 -26.9025
1314 1 -25.32 18.99 -25.32
1315 4 -26.9025 17.4075 -23.7375
1316 4 -25.32 18.99 -22.155
1317 1 -25.32 18.99 -18.99
1318 1 -26.9025 17.4075 -17.4075
1319 1 -25.32 18.99 -15.825
1320 3 -26.9025 17.4075 -14.2425
1321 1 -25.32 18.99 -12.66
1322 2 -25.32 18.99 -9.495
1323 1 -26.9025 17.4075 -7.9125
1324 3 -25.32 18.99 -6.33
1325 4 -26.9025 17.4075 -4.7475
1326 1 -25.32 18.99 -3.165
1327 4 -26.9025 17.4075 -1.5825
1328 3 -25.32 18.99 0.0
1329 1 -26.9025 17.4075 1.5825
1330 2 -25.32 18.99 3.165
1331 3 -26.9025 17.4075 4.7475
1332 1 -25.32 18.99 6.33
1333 2 -26.9025 17.4075 7.9125
1334 1 -25.32 18.99 9.495
1335 2 -26.9025 17.4075 11.0775
1336 3 -25.32 18.99 12.66
1337 3 -26.9025 17.4075 14.2425
1338 4 -25.32 18.99 15.825
1339 4 -26.9025 17.4075 17.4075
1340 2 -25.32 18.99 18.99
1341 4 -26.9025 17.4075 20.5725
1342 1 -25.32 18.99 22.155
1343 2 -26.9025 17.4075 23.7375
1344 4 -25.32 18.99 25.32
1345 3 -26.9025 17.4075 26.9025
1346 3 -25.32 18.99 28.485
1347 2 -26.9025 17.4075 30.0675
1348 3 -25.32 18.99 31.65
1349 4 -26.9025 20.5725 -30.0675
1350 2 -25.32 22.155 -28.485
1351 4 -26.9025 20.5725 -26.9025
1352 2 -25.32 22.155 -25.32
1353 2 -26.9025 20.5725 -23.7375
1354 2 -25.32 22.155 -22.155
1355 1 -26.9025 20.5725 -20.5725
1356 1 -25.32 22.155 -18.99
1357 4 -26.9025 20.5725 -17.4075
1358 2 -25.32 22.155 -15.825
1359 1 -26.9025 20.5725 -14.2425
1360 2 -25.32 22.155 -12.66
1361 3 -26.9025 20.5725 -11.0775
1362 3 -26.9025 20.5725 -7.9125
1363 4 -25.32 22.155 -6.33
1364 2 -26.9025 20.5725 -4.7475
1365 4 -25.32 22.155 -3.165
1366 1 -26.9025 20.5725 -1.5825
1367 4 -25.32 22.155 0.0
1368 2 -26.9025 20.5725 1.5825
1369 2 -25.32 22.155 3.165
1370 3 -26.9025 20.5725 4.7475
1371 3 -25.32 22.155 6.33
1372 3 -26.9025 20.5725 7.9125
1373 1 -25.32 22.155 9.495
1374 4 -26.9025 20.5725 11.0775
1375 1 -25.32 22.155 12.66
1376 3 -26.9025 20.5725 14.2425
1377 1 -26.9025 20.5725 17.4075
1378 4 -25.32 22.155 18.99
1379 1 -26.9025 20.5725 20.5725
1380 3 -25.32 22.155 22.155
1381 1 -26.9025 20.5725 23.7375
1382 3 -25.32 22.155 25.32
1383 4 -26.9025 20.5725 26.9025
1384 1 -25.32 22.155 28.485
1385 4 -26.9025 20.5725 30.0675
1386 3 -25.32 22.155 31.65
1387 2 -26.9025 23.7375 -30.0675
1388 4 -25.32 25.32 -28.485
1389 2 -25.32 25.32 -25.32
1390 4 -26.9025 23.7375 -23.7375
1391 2 -25.32 25.32 -22.155
1392 3 -25.32 25.32 -18.99
1393 2 -26.9025 23.7375 -17.4075
1394 1 -25.32 25.32 -15.825
1395 1 -26.9025 23.7375 -14.2425
1396 4 -25.32 25.32 -12.66
1397 1 -26.9025 23.7375 -11.0775
1398 4 -25.32 25.32 -9.495
1399 4 -26.9025 23.7375 -7.9125
1400 3 -25.32 25.32 -6.33
1401 2 -26.9025 23.7375 -4.7475
1402 3 -25.32 25.32 -3.165
1403 4 -26.9025 23.7375 -1.5825
1404 1 -25.32 25.32 0.0
1405 3 -25.32 25.32 3.165
1406 1 -26.9025 23.7375 4.7475
1407 3 -25.32 25.32 6.33
1408 3 -26.9025 23.7375 7.9125
1409 3 -25.32 25.32 9.495
1410 2 -26.9025 23.7375 11.0775
1411 2 -25.32 25.32 12.66
1412 1 -26.9025 23.7375 14.2425
1413 1 -25.32 25.32 15.825
1414 4 -26.9025 23.7375 17.4075
1415 2 -25.32 25.32 18.99
1416 4 -25.32 25.32 22.155
1417 1 -26.9025 23.7375 23.7375
1418 2 -26.9025 23.7375 26.9025
1419 3 -25.32 25.32 28.485
1420 2 -26.9025 23.7375 30.0675
1421 1 -25.32 25.32 31.65
1422 3 -26.9025 26.9025 -30.0675
1423 2 -25.32 28.485 -28.485
1424 2 -26.9025 26.9025 -26.9025
1425 4 -26.9025 26.9025 -23.7375
1426 4 -25.32 28.485 -22.155
1427 4 -26.9025 26.9025 -20.5725
1428 1 -25.32 28.485 -18.99
1429 4 -26.9025 26.9025 -17.4075
1430 1 -25.32 28.485 -15.825
1431 3 -26.9025 26.9025 -14.2425
1432 3 -25.32 28.485 -12.66
1433 3 -26.9025 26.9025 -11.0775
1434 2 -26.9025 26.9025 -7.9125
1435 1 -25.32 28.485 -6.33
1436 1 -25.32 28.485 -3.165
1437 3 -26.9025 26.9025 -1.5825
1438 4 -25.32 28.485 0.0
1439 4 -26.9025 26.9025 1.5825
1440 2 -25.32 28.485 3.165
1441 4 -26.9025 26.9025 4.7475
1442 1 -25.32 28.485 6.33
1443 1 -26.9025 26.9025 7.9125
1444 1 -25.32 28.485 9.495
1445 4 -26.9025 26.9025 11.0775
1446 3 -25.32 28.485 12.66
1447 2 -26.9025 26.9025 14.2425
1448 4 -25.32 28.485 15.825
1449 1 -26.9025 26.9025 17.4075
1450 1 -25.32 28.485 18.99
1451 1 -25.32 28.485 22.155
1452 1 -26.9025 26.9025 23.7375
1453 4 -25.32 28.485 25.32
1454 4 -26.9025 26.9025 26.9025
1455 4 -25.32 28.485 28.485
1456 1 -26.9025 26.9025 30.0675
1457 2 -25.32 28.485 31.65
1458 4 -26.9025 30.0675 -30.0675
1459 1 -25.32 31.65 -28.485
1460 2 -26.9025 30.0675 -26.9025
1461 1 -25.32 31.65 -25.32
1462 4 -26.9025 30.0675 -23.7375
1463 2 -25.32 31.65 -22.155
1464 3 -26.9025 30.0675 -20.5725
1465 4 -25.32 31.65 -18.99
1466 1 -25.32 31.65 -15.825
1467 4 -25.32 31.65 -12.66
1468 2 -26.9025 30.0675 -11.0775
1469 1 -25.32 31.65 -9.495
1470 3 -26.9025 30.0675 -7.9125
1471 4 -25.32 31.65 -6.33
1472 2 -26.9025 30.0675 -4.7475
1473 3 -25.32 31.65 -3.165
1474 2 -26.9025 30.0675 -1.5825
1475 2 -25.32 31.65 0.0
1476 2 -26.9025 30.0675 1.5825
1477 1 -25.32 31.65 3.165
1478 3 -26.9025 30.0675 4.7475
1479 1 -25.32 31.65 6.33
1480 1 -26.9025 30.0675 7.9125
1481 2 -25.32 31.65 9.495
1482 1 -26.9025 30.0675 11.0775
1483 3 -25.32 31.65 12.66
1484 4 -26.9025 30.0675 14.2425
1485 2 -25.32 31.65 15.825
1486 2 -26.9025 30.0675 17.4075
1487 4 -25.32 31.65 18.99
1488 1 -26.9025 30.0675 20.5725
1489 3 -26.9025 30.0675 23.7375
1490 1 -25.32 31.65 25.32
1491 4 -26.9025 30.0675 26.9025
1492 3 -25.32 31.65 28.485
1493 2 -26.9025 30.0675 30.0675
1494 4 -25.32 31.65 31.65
1495 4 -23.7375 -30.0675 -30.0675
1496 2 -22.155 -28.485 -28.485
1497 4 -22.155 -28.485 -25.32
1498 2 -23.7375 -30.0675 -23.7375
1499 4 -22.155 -28.485 -22.155
1500 4 -23.7375 -30.0675 -20.5725
1501 1 -22.155 -28.485 -18.99
1502 4 -22.155 -28.485 -15.825
1503 1 -23.7375 -30.0675 -14.2425
1504 2 -22.155 -28.485 -12.66
1505 3 -23.7375 -30.0675 -11.0775
1506 1 -22.155 -28.485 -9.495
1507 4 -23.7375 -30.0675 -7.9125
1508 4 -22.155 -28.485 -6.33
1509 4 -23.7375 -30.0675 -4.7475
1510 4 -22.155 -28.485 -3.165
1511 1 -23.7375 -30.0675 -1.5825
1512 3 -22.155 -28.485 0.0
1513 3 -23.7375 -30.0675 1.5825
1514 4 -22.155 -28.485 3.165
1515 1 -23.7375 -30.0675 4.7475
1516 1 -22.155 -28.485 6.33
1517 1 -23.7375 -30.0675 7.9125
1518 2 -22.155 -28.485 9.495
1519 4 -23.7375 -30.0675 11.0775
1520 2 -22.155 -28.485 12.66
1521 3 -23.7375 -30.0675 14.2425
1522 3 -22.155 -28.485 15.825
1523 2 -22.155 -28.485 18.99
1524 2 -23.7375 -30.0675 20.5725
1525 4 -22.155 -28.485 22.155
1526 3 -23.7375 -30.0675 23.7375
1527 1 -22.155 -28.485 25.32
1528 2 -23.7375 -30.0675 26.9025
1529 1 -22.155 -28.485 28.485
1530 4 -23.7375 -30.0675 30.0675
1531 1 -22.155 -28.485 31.65
1532 4 -23.7375 -26.9025 -30.0675
1533 1 -22.155 -25.32 -28.485
1534 3 -23.7375 -26.9025 -26.9025
1535 2 -22.155 -25.32 -25.32
1536 1 -23.7375 -26.9025 -23.7375
1537 4 -22.155 -25.32 -22.155
1538 2 -23.7375 -26.9025 -20.5725
1539 2 -22.155 -25.32 -18.99
1540 2 -23.7375 -26.9025 -17.4075
1541 1 -22.155 -25.32 -15.825
1542 4 -23.7375 -26.9025 -14.2425
1543 1 -22.155 -25.32 -12.66
1544 4 -23.7375 -26.9025 -11.0775
1545 4 -22.155 -25.32 -9.495
1546 2 -23.7375 -26.9025 -7.9125
1547 1 -23.7375 -26.9025 -4.7475
1548 4 -22.155 -25.32 -3.165
1549 4 -23.7375 -26.9025 -1.5825
1550 1 -22.155 -25.32 0.0
1551 4 -22.155 -25.32 3.165
1552 2 -23.7375 -26.9025 4.7475
1553 4 -22.155 -25.32 6.33
1554 3 -23.7375 -26.9025 7.9125
1555 2 -22.155 -25.32 9.495
1556 1 -23.7375 -26.9025 11.0775
1557 2 -22.155 -25.32 12.66
1558 2 -23.7375 -26.9025 14.2425
1559 2 -22.155 -25.32 15.825
1560 3 -22.155 -25.32 18.99
1561 4 -23.7375 -26.9025 20.5725
1562 2 -22.155 -25.32 22.155
1563 1 -23.7375 -26.9025 23.7375
1564 4 -22.155 -25.32 25.32
1565 4 -23.7375 -26.9025 26.9025
1566 1 -22.155 -25.32 28.485
1567 1 -23.7375 -26.9025 30.0675
1568 2 -22.155 -25.32 31.65
1569 4 -23.7375 -23.7375 -30.0675
1570 1 -22.155 -22.155 -28.485
1571 3 -23.7375 -23.7375 -26.9025
1572 3 -22.155 -22.155 -25.32
1573 4 -23.7375 -23.7375 -23.7375
1574 1 -22.155 -22.155 -22.155
1575 1 -23.7375 -23.7375 -20.5725
1576 1 -23.7375 -23.7375 -17.4075
1577 4 -22.155 -22.155 -15.825
1578 2 -23.7375 -23.7375 -14.2425
1579 3 -22.155 -22.155 -12.66
1580 1 -23.7375 -23.7375 -11.0775
1581 1 -22.155 -22.155 -9.495
1582 1 -23.7375 -23.7375 -7.9125
1583 2 -22.155 -22.155 -6.33
1584 1 -23.7375 -23.7375 -4.7475
1585 3 -22.155 -22.155 -3.165
1586 4 -23.7375 -23.7375 -1.5825
1587 2 -22.155 -22.155 0.0
1588 4 -23.7375 -23.7375 1.5825
1589 3 -22.155 -22.155 3.165
1590 3 -23.7375 -23.7375 4.7475
1591 4 -22.155 -22.155 6.33
1592 1 -23.7375 -23.7375 7.9125
1593 3 -22.155 -22.155 9.495
1594 3 -23.7375 -23.7375 11.0775
1595 2 -22.155 -22.155 12.66
1596 3 -23.7375 -23.7375 14.2425
1597 3 -22.155 -22.155 15.825
1598 1 -23.7375 -23.7375 17.4075
1599 4 -22.155 -22.155 18.99
1600 1 -23.7375 -23.7375 20.5725
1601 1 -22.155 -22.155 22.155
1602 2 -23.7375 -23.7375 23.7375
1603 2 -22.155 -22.155 25.32
1604 3 -23.7375 -23.7375 26.9025
1605 3 -22.155 -22.155 28.485
1606 1 -23.7375 -23.7375 30.0675
1607 2 -23.7375 -20.5725 -30.0675
1608 3 -22.155 -18.99 -28.485
1609 2 -23.7375 -20.5725 -26.9025
1610 1 -22.155 -18.99 -25.32
1611 4 -23.7375 -20.5725 -23.7375
1612 2 -22.155 -18.99 -22.155
1613 1 -23.7375 -20.5725 -20.5725
1614 1 -23.7375 -20.5725 -17.4075
1615 3 -22.155 -18.99 -15.825
1616 3 -23.7375 -20.5725 -14.2425
1617 2 -22.155 -18.99 -12.66
1618 3 -23.7375 -20.5725 -11.0775
1619 1 -22.155 -18.99 -9.495
1620 2 -23.7375 -20.5725 -7.9125
1621 3 -22.155 -18.99 -6.33
1622 3 -23.7375 -20.5725 -4.7475
1623 3 -22.155 -18.99 -3.165
1624 2 -23.7375 -20.5725 -1.5825
1625 2 -22.155 -18.99 0.0
1626 1 -23.7375 -20.5725 1.5825
1627 4 -23.7375 -20.5725 4.7475
1628 4 -22.155 -18.99 6.33
1629 2 -23.7375 -20.5725 7.9125
1630 3 -22.155 -18.99 9.495
1631 2 -22.155 -18.99 12.66
1632 1 -22.155 -18.99 15.825
1633 3 -23.7375 -20.5725 17.4075
1634 3 -22.155 -18.99 18.99
1635 1 -22.155 -18.99 22.155
1636 3 -22.155 -18.99 25.32
1637 4 -23.7375 -20.5725 26.9025
1638 2 -22.155 -18.99 28.485
1639 3 -23.7375 -20.5725 30.0675
1640 4 -22.155 -18.99 31.65
1641 4 -22.155 -15.825 -28.485
1642 3 -23.7375 -17.4075 -26.9025
1643 3 -22.155 -15.825 -25.32
1644 2 -23.7375 -17.4075 -23.7375
1645 3 -22.155 -15.825 -22.155
1646 2 -23.7375 -17.4075 -20.5725
1647 4 -22.155 -15.825 -18.99
1648 4 -23.7375 -17.4075 -17.4075
1649 2 -22.155 -15.825 -15.825
1650 3 -23.7375 -17.4075 -14.2425
1651 1 -22.155 -15.825 -12.66
1652 1 -23.7375 -17.4075 -7.9125
1653 2 -22.155 -15.825 -6.33
1654 4 -23.7375 -17.4075 -4.7475
1655 3 -22.155 -15.825 -3.165
1656 3 -23.7375 -17.4075 -1.5825
1657 4 -22.155 -15.825 0.0
1658 2 -23.7375 -17.4075 1.5825
1659 4 -22.155 -15.825 3.165
1660 2 -23.7375 -17.4075 4.7475
1661 1 -22.155 -15.825 6.33
1662 1 -23.7375 -17.4075 7.9125
1663 1 -22.155 -15.825 9.495
1664 2 -23.7375 -17.4075 11.0775
1665 2 -22.155 -15.825 12.66
1666 2 -23.7375 -17.4075 14.2425
1667 4 -22.155 -15.825 15.825
1668 4 -23.7375 -17.4075 17.4075
1669 3 -22.155 -15.825 18.99
1670 1 -23.7375 -17.4075 20.5725
1671 2 -22.155 -15.825 22.155
1672 2 -23.7375 -17.4075 23.7375
1673 3 -22.155 -15.825 28.485
1674 4 -23.7375 -17.4075 30.0675
1675 2 -22.155 -15.825 31.65
1676 4 -23.7375 -14.2425 -30.0675
1677 2 -22.155 -12.66 -28.485
1678 1 -23.7375 -14.2425 -26.9025
1679 3 -22.155 -12.66 -25.32
1680 1 -23.7375 -14.2425 -23.7375
1681 3 -22.155 -12.66 -22.155
1682 1 -23.7375 -14.2425 -20.5725
1683 3 -22.155 -12.66 -18.99
1684 1 -23.7375 -14.2425 -17.4075
1685 4 -22.155 -12.66 -15.825
1686 4 -23.7375 -14.2425 -14.2425
1687 4 -22.155 -12.66 -12.66
1688 2 -22.155 -12.66 -9.495
1689 4 -23.7375 -14.2425 -7.9125
1690 3 -22.155 -12.66 -6.33
1691 4 -23.7375 -14.2425 -4.7475
1692 4 -22.155 -12.66 -3.165
1693 2 -23.7375 -14.2425 -1.5825
1694 2 -22.155 -12.66 0.0
1695 2 -23.7375 -14.2425 1.5825
1696 1 -22.155 -12.66 3.165
1697 2 -23.7375 -14.2425 4.7475
1698 3 -22.155 -12.66 6.33
1699 2 -23.7375 -14.2425 7.9125
1700 3 -22.155 -12.66 9.495
1701 4 -23.7375 -14.2425 11.0775
1702 3 -22.155 -12.66 12.66
1703 4 -23.7375 -14.2425 14.2425
1704 4 -22.155 -12.66 15.825
1705 4 -22.155 -12.66 18.99
1706 3 -23.7375 -14.2425 20.5725
1707 3 -22.155 -12.66 22.155
1708 4 -23.7375 -14.2425 23.7375
1709 2 -22.155 -12.66 25.32
1710 1 -23.7375 -14.2425 26.9025
1711 4 -23.7375 -14.2425 30.0675
1712 2 -22.155 -12.66 31.65
1713 3 -23.7375 -11.0775 -30.0675
1714 3 -22.155 -9.495 -28.485
1715 1 -23.7375 -11.0775 -26.9025
1716 2 -22.155 -9.495 -25.32
1717 3 -23.7375 -11.0775 -23.7375
1718 2 -22.155 -9.495 -22.155
1719 3 -23.7375 -11.0775 -20.5725
1720 1 -22.155 -9.495 -18.99
1721 1 -23.7375 -11.0775 -17.4075
1722 1 -22.155 -9.495 -15.825
1723 4 -23.7375 -11.0775 -14.2425
1724 2 -22.155 -9.495 -12.66
1725 4 -23.7375 -11.0775 -11.0775
1726 4 -22.155 -9.495 -9.495
1727 1 -23.7375 -11.0775 -7.9125
1728 2 -22.155 -9.495 -6.33
1729 4 -23.7375 -11.0775 -4.7475
1730 4 -22.155 -9.495 -3.165
1731 1 -23.7375 -11.0775 -1.5825
1732 1 -22.155 -9.495 0.0
1733 1 -23.7375 -11.0775 1.5825
1734 2 -22.155 -9.495 3.165
1735 2 -23.7375 -11.0775 4.7475
1736 2 -23.7375 -11.0775 7.9125
1737 3 -22.155 -9.495 9.495
1738 1 -23.7375 -11.0775 11.0775
1739 3 -22.155 -9.495 12.66
1740 3 -23.7375 -11.0775 14.2425
1741 3 -22.155 -9.495 15.825
1742 1 -23.7375 -11.0775 17.4075
1743 4 -22.155 -9.495 18.99
1744 2 -23.7375 -11.0775 20.5725
1745 1 -22.155 -9.495 22.155
1746 2 -23.7375 -11.0775 23.7375
1747 3 -22.155 -9.495 25.32
1748 2 -23.7375 -11.0775 26.9025
1749 4 -22.155 -9.495 28.485
1750 2 -23.7375 -11.0775 30.0675
1751 3 -22.155 -9.495 31.65
1752 1 -23.7375 -7.9125 -30.0675
1753 1 -22.155 -6.33 -28.485
1754 3 -23.7375 -7.9125 -26.9025
1755 1 -22.155 -6.33 -25.32
1756 4 -23.7375 -7.9125 -23.7375
1757 1 -22.155 -6.33 -22.155
1758 1 -23.7375 -7.9125 -20.5725
1759 1 -22.155 -6.33 -18.99
1760 2 -23.7375 -7.9125 -17.4075
1761 2 -22.155 -6.33 -15.825
1762 1 -23.7375 -7.9125 -14.2425
1763 2 -22.155 -6.33 -12.66
1764 3 -22.155 -6.33 -9.495
1765 2 -22.155 -6.33 -6.33
1766 3 -23.7375 -7.9125 -4.7475
1767 2 -22.155 -6.33 -3.165
1768 4 -23.7375 -7.9125 -1.5825
1769 3 -22.155 -6.33 0.0
1770 2 -23.7375 -7.9125 1.5825
1771 3 -22.155 -6.33 3.165
1772 2 -23.7375 -7.9125 4.7475
1773 4 -22.155 -6.33 6.33
1774 2 -23.7375 -7.9125 7.9125
1775 4 -22.155 -6.33 9.495
1776 1 -23.7375 -7.9125 11.0775
1777 1 -22.155 -6.33 12.66
1778 1 -23.7375 -7.9125 14.2425
1779 3 -22.155 -6.33 15.825
1780 2 -23.7375 -7.9125 17.4075
1781 2 -22.155 -6.33 18.99
1782 2 -23.7375 -7.9125 20.5725
1783 3 -22.155 -6.33 22.155
1784 4 -23.7375 -7.9125 23.7375
1785 3 -22.155 -6.33 25.32
1786 4 -23.7375 -7.9125 26.9025
1787 4 -22.155 -6.33 28.485
1788 3 -23.7375 -7.9125 30.0675
1789 3 -22.155 -6.33 31.65
1790 2 -23.7375 -4.7475 -30.0675
1791 2 -22.155 -3.165 -28.485
1792 4 -23.7375 -4.7475 -26.9025
1793 2 -22.155 -3.165 -25.32
1794 2 -23.7375 -4.7475 -23.7375
1795 1 -22.155 -3.165 -22.155
1796 3 -23.7375 -4.7475 -20.5725
1797 4 -22.155 -3.165 -18.99
1798 4 -23.7375 -4.7475 -17.4075
1799 3 -22.155 -3.165 -15.825
1800 4 -23.7375 -4.7475 -14.2425
1801 2 -22.155 -3.165 -12.66
1802 1 -23.7375 -4.7475 -11.0775
1803 2 -22.155 -3.165 -9.495
1804 1 -22.155 -3.165 -6.33
1805 3 -23.7375 -4.7475 -4.7475
1806 3 -22.155 -3.165 -3.165
1807 2 -23.7375 -4.7475 -1.5825
1808 4 -22.155 -3.165 0.0
1809 2 -23.7375 -4.7475 1.5825
1810 3 -22.155 -3.165 3.165
1811 2 -23.7375 -4.7475 4.7475
1812 1 -23.7375 -4.7475 7.9125
1813 4 -22.155 -3.165 9.495
1814 1 -22.155 -3.165 12.66
1815 4 -23.7375 -4.7475 14.2425
1816 1 -22.155 -3.165 15.825
1817 2 -23.7375 -4.7475 17.4075
1818 3 -22.155 -3.165 18.99
1819 4 -23.7375 -4.7475 20.5725
1820 1 -22.155 -3.165 22.155
1821 4 -23.7375 -4.7475 23.7375
1822 2 -22.155 -3.165 25.32
1823 3 -23.7375 -4.7475 26.9025
1824 1 -22.155 -3.165 28.485
1825 4 -23.7375 -4.7475 30.0675
1826 4 -23.7375 -1.5825 -30.0675
1827 1 -22.155 0.0 -28.485
1828 2 -23.7375 -1.5825 -26.9025
1829 4 -22.155 0.0 -25.32
1830 3 -23.7375 -1.5825 -23.7375
1831 3 -22.155 0.0 -22.155
1832 3 -23.7375 -1.5825 -20.5725
1833 1 -22.155 0.0 -18.99
1834 3 -22.155 0.0 -15.825
1835 3 -23.7375 -1.5825 -14.2425
1836 4 -22.155 0.0 -12.66
1837 2 -23.7375 -1.5825 -11.0775
1838 1 -22.155 0.0 -9.495
1839 2 -23.7375 -1.5825 -7.9125
1840 4 -22.155 0.0 -6.33
1841 4 -22.155 0.0 -3.165
1842 1 -23.7375 -1.5825 -1.5825
1843 3 -22.155 0.0 0.0
1844 2 -23.7375 -1.5825 1.5825
1845 2 -22.155 0.0 3.165
1846 3 -23.7375 -1.5825 4.7475
1847 4 -22.155 0.0 6.33
1848 3 -23.7375 -1.5825 7.9125
1849 3 -22.155 0.0 9.495
1850 1 -23.7375 -1.5825 11.0775
1851 1 -22.155 0.0 12.66
1852 1 -23.7375 -1.5825 14.2425
1853 4 -22.155 0.0 15.825
1854 1 -23.7375 -1.5825 17.4075
1855 3 -22.155 0.0 18.99
1856 1 -23.7375 -1.5825 20.5725
1857 2 -22.155 0.0 22.155
1858 3 -23.7375 -1.5825 23.7375
1859 2 -22.155 0.0 25.32
1860 1 -23.7375 -1.5825 26.9025
1861 2 -22.155 0.0 28.485
1862 1 -23.7375 -1.5825 30.0675
1863 3 -22.155 0.0 31.65
1864 4 -23.7375 1.5825 -30.0675
1865 4 -22.155 3.165 -28.485
1866 3 -23.7375 1.5825 -26.9025
1867 1 -22.155 3.165 -25.32
1868 2 -23.7375 1.5825 -23.7375
1869 2 -22.155 3.165 -22.155
1870 2 -23.7375 1.5825 -20.5725
1871 1 -22.155 3.165 -18.99
1872 3 -23.7375 1.5825 -17.4075
1873 3 -23.7375 1.5825 -14.2425
1874 3 -22.155 3.165 -12.66
1875 3 -23.7375 1.5825 -11.0775
1876 3 -22.155 3.165 -9.495
1877 4 -23.7375 1.5825 -7.9125
1878 1 -22.155 3.165 -6.33
1879 1 -23.7375 1.5825 -1.5825
1880 2 -22.155 3.165 0.0
1881 2 -23.7375 1.5825 1.5825
1882 2 -22.155 3.165 3.165
1883 4 -23.7375 1.5825 4.7475
1884 3 -22.155 3.165 6.33
1885 3 -23.7375 1.5825 7.9125
1886 1 -22.155 3.165 9.495
1887 4 -22.155 3.165 12.66
1888 3 -23.7375 1.5825 14.2425
1889 1 -22.155 3.165 15.825
1890 2 -23.7375 1.5825 17.4075
1891 3 -22.155 3.165 18.99
1892 2 -23.7375 1.5825 20.5725
1893 4 -22.155 3.165 22.155
1894 2 -23.7375 1.5825 23.7375
1895 2 -22.155 3.165 25.32
1896 2 -23.7375 1.5825 26.9025
1897 2 -22.155 3.165 28.485
1898 3 -23.7375 1.5825 30.0675
1899 3 -22.155 3.165 31.65
1900 4 -22.155 6.33 -28.485
1901 3 -23.7375 4.7475 -26.9025
1902 1 -22.155 6.33 -25.32
1903 3 -23.7375 4.7475 -23.7375
1904 4 -22.155 6.33 -22.155
1905 2 -23.7375 4.7475 -20.5725
1906 4 -22.155 6.33 -18.99
1907 1 -23.7375 4.7475 -17.4075
1908 1 -22.155 6.33 -15.825
1909 2 -23.7375 4.7475 -14.2425
1910 3 -22.155 6.33 -12.66
1911 3 -23.7375 4.7475 -11.0775
1912 4 -22.155 6.33 -9.495
1913 2 -23.7375 4.7475 -7.9125
1914 4 -22.155 6.33 -6.33
1915 1 -23.7375 4.7475 -4.7475
1916 2 -22.155 6.33 -3.165
1917 3 -23.7375 4.7475 -1.5825
1918 3 -22.155 6.33 0.0
1919 2 -23.7375 4.7475 1.5825
1920 1 -22.155 6.33 3.165
1921 2 -23.7375 4.7475 4.7475
1922 1 -22.155 6.33 6.33
1923 4 -22.155 6.33 9.495
1924 1 -22.155 6.33 12.66
1925 1 -23.7375 4.7475 14.2425
1926 4 -22.155 6.33 15.825
1927 1 -23.7375 4.7475 17.4075
1928 4 -22.155 6.33 18.99
1929 3 -23.7375 4.7475 20.5725
1930 2 -22.155 6.33 22.155
1931 3 -23.7375 4.7475 23.7375
1932 2 -22.155 6.33 25.32
1933 2 -23.7375 4.7475 26.9025
1934 2 -22.155 6.33 28.485
1935 1 -22.155 6.33 31.65
1936 3 -23.7375 7.9125 -30.0675
1937 4 -22.155 9.495 -28.485
1938 1 -23.7375 7.9125 -26.9025
1939 4 -22.155 9.495 -25.32
1940 1 -22.155 9.495 -22.155
1941 1 -23.7375 7.9125 -20.5725
1942 4 -22.155 9.495 -18.99
1943 2 -23.7375 7.9125 -17.4075
1944 4 -22.155 9.495 -15.825
1945 4 -23.7375 7.9125 -14.2425
1946 1 -22.155 9.495 -12.66
1947 1 -23.7375 7.9125 -11.0775
1948 4 -22.155 9.495 -9.495
1949 1 -23.7375 7.9125 -7.9125
1950 2 -22.155 9.495 -6.33
1951 3 -23.7375 7.9125 -4.7475
1952 2 -22.155 9.495 -3.165
1953 2 -23.7375 7.9125 -1.5825
1954 3 -22.155 9.495 0.0
1955 1 -23.7375 7.9125 1.5825
1956 2 -22.155 9.495 3.165
1957 1 -23.7375 7.9125 4.7475
1958 1 -22.155 9.495 6.33
1959 2 -23.7375 7.9125 7.9125
1960 3 -22.155 9.495 9.495
1961 3 -23.7375 7.9125 11.0775
1962 2 -22.155 9.495 12.66
1963 1 -23.7375 7.9125 14.2425
1964 2 -22.155 9.495 15.825
1965 2 -23.7375 7.9125 17.4075
1966 4 -22.155 9.495 18.99
1967 3 -23.7375 7.9125 20.5725
1968 2 -22.155 9.495 22.155
1969 3 -23.7375 7.9125 23.7375
1970 1 -22.155 9.495 25.32
1971 2 -23.7375 7.9125 26.9025
1972 2 -22.155 9.495 28.485
1973 2 -22.155 9.495 31.65
1974 3 -23.7375 11.0775 -30.0675
1975 2 -22.155 12.66 -28.485
1976 2 -23.7375 11.0775 -26.9025
1977 4 -22.155 12.66 -25.32
1978 2 -23.7375 11.0775 -23.7375
1979 2 -23.7375 11.0775 -20.5725
1980 4 -22.155 12.66 -18.99
1981 1 -23.7375 11.0775 -17.4075
1982 1 -22.155 12.66 -15.825
1983 1 -23.7375 11.0775 -14.2425
1984 4 -22.155 12.66 -12.66
1985 4 -23.7375 11.0775 -11.0775
1986 3 -22.155 12.66 -9.495
1987 3 -22.155 12.66 -6.33
1988 4 -23.7375 11.0775 -4.7475
1989 3 -22.155 12.66 -3.165
1990 2 -23.7375 11.0775 -1.5825
1991 4 -23.7375 11.0775 1.5825
1992 2 -22.155 12.66 3.165
1993 3 -23.7375 11.0775 4.7475
1994 1 -22.155 12.66 6.33
1995 3 -23.7375 11.0775 7.9125
1996 2 -22.155 12.66 9.495
1997 3 -23.7375 11.0775 11.0775
1998 2 -22.155 12.66 12.66
1999 4 -23.7375 11.0775 14.2425
2000 2 -22.155 12.66 15.825
2001 4 -23.7375 11.0775 17.4075
2002 1 -22.155 12.66 18.99
2003 4 -23.7375 11.0775 20.5725
2004 3 -23.7375 11.0775 23.7375
2005 3 -22.155 12.66 25.32
2006 2 -23.7375 11.0775 26.9025
2007 3 -22.155 12.66 28.485
2008 3 -23.7375 11.0775 30.0675
2009 3 -22.155 12.66 31.65
2010 4 -23.7375 14.2425 -30.0675
2011 1 -23.7375 14.2425 -26.9025
2012 3 -22.155 15.825 -25.32
2013 4 -23.7375 14.2425 -23.7375
2014 1 -22.155 15.825 -22.155
2015 3 -23.7375 14.2425 -20.5725
2016 2 -22.155 15.825 -18.99
2017 1 -23.7375 14.2425 -17.4075
2018 2 -22.155 15.825 -15.825
2019 3 -23.7375 14.2425 -14.2425
2020 2 -22.155 15.825 -12.66
2021 3 -23.7375 14.2425 -11.0775
2022 1 -22.155 15.825 -9.495
2023 3 -23.7375 14.2425 -7.9125
2024 2 -23.7375 14.2425 -4.7475
2025 1 -22.155 15.825 -3.165
2026 3 -23.7375 14.2425 -1.5825
2027 1 -22.155 15.825 0.0
2028 2 -23.7375 14.2425 1.5825
2029 4 -22.155 15.825 3.165
2030 2 -23.7375 14.2425 4.7475
2031 1 -22.155 15.825 6.33
2032 4 -23.7375 14.2425 7.9125
2033 2 -22.155 15.825 9.495
2034 4 -23.7375 14.2425 11.0775
2035 3 -22.155 15.825 12.66
2036 4 -23.7375 14.2425 14.2425
2037 1 -22.155 15.825 15.825
2038 4 -23.7375 14.2425 17.4075
2039 4 -22.155 15.825 18.99
2040 4 -23.7375 14.2425 20.5725
2041 4 -22.155 15.825 22.155
2042 4 -23.7375 14.2425 23.7375
2043 3 -22.155 15.825 25.32
2044 1 -23.7375 14.2425 26.9025
2045 4 -22.155 15.825 28.485
2046 2 -23.7375 14.2425 30.0675
2047 3 -22.155 15.825 31.65
2048 1 -23.7375 17.4075 -30.0675
2049 3 -22.155 18.99 -28.485
2050 3 -23.7375 17.4075 -26.9025
2051 3 -22.155 18.99 -25.32
2052 3 -23.7375 17.4075 -23.7375
2053 2 -22.155 18.99 -22.155
2054 4 -23.7375 17.4075 -20.5725
2055 1 -22.155 18.99 -18.99
2056 1 -23.7375 17.4075 -17.4075
2057 3 -22.155 18.99 -15.825
2058 4 -23.7375 17.4075 -14.2425
2059 3 -22.155 18.99 -12.66
2060 3 -23.7375 17.4075 -11.0775
2061 1 -23.7375 17.4075 -7.9125
2062 2 -23.7375 17.4075 -4.7475
2063 4 -22.155 18.99 -3.165
2064 1 -23.7375 17.4075 -1.5825
2065 2 -22.155 18.99 0.0
2066 4 -23.7375 17.4075 1.5825
2067 4 -22.155 18.99 3.165
2068 1 -23.7375 17.4075 4.7475
2069 3 -22.155 18.99 6.33
2070 4 -23.7375 17.4075 7.9125
2071 2 -22.155 18.99 9.495
2072 4 -23.7375 17.4075 11.0775
2073 3 -22.155 18.99 12.66
2074 2 -22.155 18.99 15.825
2075 4 -23.7375 17.4075 17.4075
2076 2 -22.155 18.99 18.99
2077 1 -23.7375 17.4075 20.5725
2078 3 -22.155 18.99 22.155
2079 3 -23.7375 17.4075 23.7375
2080 2 -22.155 18.99 25.32
2081 2 -23.7375 17.4075 26.9025
2082 2 -22.155 18.99 28.485
2083 4 -23.7375 17.4075 30.0675
2084 4 -22.155 18.99 31.65
2085 1 -23.7375 20.5725 -30.0675
2086 1 -22.155 22.155 -28.485
2087 1 -23.7375 20.5725 -26.9025
2088 1 -22.155 22.155 -25.32
2089 2 -23.7375 20.5725 -23.7375
2090 1 -22.155 22.155 -22.155
2091 1 -23.7375 20.5725 -20.5725
2092 2 -22.155 22.155 -18.99
2093 1 -23.7375 20.5725 -17.4075
2094 1 -22.155 22.155 -15.825
2095 4 -23.7375 20.5725 -14.2425
2096 2 -22.155 22.155 -12.66
2097 4 -23.7375 20.5725 -11.0775
2098 4 -22.155 22.155 -9.495
2099 2 -23.7375 20.5725 -7.9125
2100 3 -22.155 22.155 -6.33
2101 1 -23.7375 20.5725 -4.7475
2102 2 -22.155 22.155 -3.165
2103 3 -23.7375 20.5725 -1.5825
2104 1 -22.155 22.155 0.0
2105 2 -23.7375 20.5725 1.5825
2106 2 -22.155 22.155 3.165
2107 1 -23.7375 20.5725 4.7475
2108 2 -22.155 22.155 6.33
2109 3 -23.7375 20.5725 7.9125
2110 1 -22.155 22.155 9.495
2111 1 -23.7375 20.5725 11.0775
2112 2 -22.155 22.155 12.66
2113 1 -23.7375 20.5725 14.2425
2114 3 -22.155 22.155 15.825
2115 3 -23.7375 20.5725 17.4075
2116 3 -22.155 22.155 18.99
2117 3 -23.7375 20.5725 20.5725
2118 3 -22.155 22.155 22.155
2119 1 -23.7375 20.5725 23.7375
2120 4 -22.155 22.155 25.32
2121 4 -23.7375 20.5725 26.9025
2122 4 -22.155 22.155 28.485
2123 3 -23.7375 20.5725 30.0675
2124 3 -22.155 22.155 31.65
2125 4 -23.7375 23.7375 -30.0675
2126 2 -22.155 25.32 -28.485
2127 1 -23.7375 23.7375 -26.9025
2128 4 -22.155 25.32 -25.32
2129 2 -22.155 25.32 -22.155
2130 3 -22.155 25.32 -18.99
2131 3 -23.7375 23.7375 -17.4075
2132 4 -22.155 25.32 -15.825
2133 1 -23.7375 23.7375 -14.2425
2134 2 -22.155 25.32 -12.66
2135 1 -23.7375 23.7375 -11.0775
2136 3 -22.155 25.32 -9.495
2137 4 -23.7375 23.7375 -7.9125
2138 1 -22.155 25.32 -6.33
2139 3 -23.7375 23.7375 -4.7475
2140 1 -22.155 25.32 -3.165
2141 4 -23.7375 23.7375 -1.5825
2142 2 -22.155 25.32 0.0
2143 1 -23.7375 23.7375 1.5825
2144 1 -22.155 25.32 3.165
2145 1 -23.7375 23.7375 4.7475
2146 1 -22.155 25.32 6.33
2147 2 -23.7375 23.7375 7.9125
2148 4 -22.155 25.32 9.495
2149 3 -23.7375 23.7375 11.0775
2150 4 -22.155 25.32 12.66
2151 1 -23.7375 23.7375 14.2425
2152 2 -22.155 25.32 15.825
2153 3 -22.155 25.32 18.99
2154 2 -23.7375 23.7375 20.5725
2155 1 -22.155 25.32 22.155
2156 3 -23.7375 23.7375 23.7375
2157 4 -22.155 25.32 25.32
2158 4 -23.7375 23.7375 26.9025
2159 3 -22.155 25.32 28.485
2160 1 -23.7375 23.7375 30.0675
2161 3 -22.155 25.32 31.65
2162 2 -23.7375 26.9025 -30.0675
2163 3 -22.155 28.485 -28.485
2164 1 -23.7375 26.9025 -26.9025
2165 1 -22.155 28.485 -25.32
2166 4 -23.7375 26.9025 -23.7375
2167 3 -22.155 28.485 -22.155
2168 1 -23.7375 26.9025 -20.5725
2169 4 -23.7375 26.9025 -17.4075
2170 3 -22.155 28.485 -15.825
2171 3 -23.7375 26.9025 -14.2425
2172 2 -22.155 28.485 -12.66
2173 4 -23.7375 26.9025 -11.0775
2174 2 -22.155 28.485 -9.495
2175 4 -23.7375 26.9025 -7.9125
2176 2 -22.155 28.485 -6.33
2177 2 -23.7375 26.9025 -4.7475
2178 2 -22.155 28.485 -3.165
2179 3 -23.7375 26.9025 -1.5825
2180 2 -22.155 28.485 0.0
2181 4 -23.7375 26.9025 1.5825
2182 1 -22.155 28.485 3.165
2183 2 -23.7375 26.9025 4.7475
2184 2 -22.155 28.485 6.33
2185 3 -23.7375 26.9025 7.9125
2186 4 -22.155 28.485 9.495
2187 3 -23.7375 26.9025 11.0775
2188 3 -22.155 28.485 12.66
2189 3 -23.7375 26.9025 14.2425
2190 4 -22.155 28.485 15.825
2191 2 -23.7375 26.9025 17.4075
2192 1 -22.155 28.485 18.99
2193 4 -23.7375 26.9025 20.5725
2194 1 -22.155 28.485 22.155
2195 2 -23.7375 26.9025 23.7375
2196 2 -22.155 28.485 25.32
2197 2 -23.7375 26.9025 26.9025
2198 2 -22.155 28.485 28.485
2199 1 -23.7375 26.9025 30.0675
2200 2 -22.155 28.485 31.65
2201 1 -23.7375 30.0675 -30.0675
2202 3 -22.155 31.65 -28.485
2203 4 -23.7375 30.0675 -26.9025
2204 1 -22.155 31.65 -25.32
2205 4 -23.7375 30.0675 -23.7375
2206 2 -22.155 31.65 -22.155
2207 3 -23.7375 30.0675 -20.5725
2208 4 -22.155 31.65 -18.99
2209 3 -23.7375 30.0675 -17.4075
2210 1 -22.155 31.65 -15.825
2211 3 -23.7375 30.0675 -14.2425
2212 1 -22.155 31.65 -12.66
2213 2 -23.7375 30.0675 -11.0775
2214 3 -22.155 31.65 -9.495
2215 1 -22.155 31.65 -6.33
2216 2 -23.7375 30.0675 -4.7475
2217 2 -22.155 31.65 -3.165
2218 4 -23.7375 30.0675 -1.5825
2219 1 -22.155 31.65 0.0
2220 1 -23.7375 30.0675 1.5825
2221 2 -22.155 31.65 3.165
2222 1 -23.7375 30.0675 4.7475
2223 4 -22.155 31.65 6.33
2224 2 -23.7375 30.0675 7.9125
2225 1 -22.155 31.65 9.495
2226 2 -23.7375 30.0675 11.0775
2227 2 -22.155 31.65 12.66
2228 4 -23.7375 30.0675 14.2425
2229 4 -22.155 31.65 15.825
2230 2 -23.7375 30.0675 17.4075
2231 1 -22.155 31.65 18.99
2232 2 -23.7375 30.0675 20.5725
2233 2 -22.155 31.65 22.155
2234 1 -23.7375 30.0675 23.7375
2235 2 -22.155 31.65 25.32
2236 2 -23.7375 30.0675 26.9025
2237 1 -22.155 31.65 28.485
2238 2 -23.7375 30.0675 30.0675
2239 4 -22.155 31.65 31.65
2240 2 -20.5725 -30.0675 -30.0675
2241 4 -18.99 -28.485 -28.485
2242 3 -20.5725 -30.0675 -26.9025
2243 4 -18.99 -28.485 -25.32
2244 1 -20.5725 -30.0675 -23.7375
2245 4 -18.99 -28.485 -22.155
2246 3 -20.5725 -30.0675 -20.5725
2247 3 -18.99 -28.485 -18.99
2248 4 -20.5725 -30.0675 -17.4075
2249 1 -18.99 -28.485 -15.825
2250 4 -20.5725 -30.0675 -14.2425
2251 1 -18.99 -28.485 -12.66
2252 3 -20.5725 -30.0675 -11.0775
2253 4 -18.99 -28.485 -9.495
2254 3 -20.5725 -30.0675 -7.9125
2255 4 -18.99 -28.485 -6.33
2256 3 -20.5725 -30.0675 -4.7475
2257 2 -18.99 -28.485 -3.165
2258 1 -20.5725 -30.0675 -1.5825
2259 4 -18.99 -28.485 0.0
2260 1 -20.5725 -30.0675 1.5825
2261 1 -20.5725 -30.0675 4.7475
2262 3 -18.99 -28.485 9.495
2263 1 -20.5725 -30.0675 11.0775
2264 3 -18.99 -28.485 12.66
2265 2 -20.5725 -30.0675 14.2425
2266 1 -18.99 -28.485 15.825
2267 2 -20.5725 -30.0675 17.4075
2268 3 -18.99 -28.485 18.99
2269 1 -20.5725 -30.0675 20.5725
2270 4 -18.99 -28.485 22.155
2271 2 -20.5725 -30.0675 23.7375
2272 2 -18.99 -28.485 25.32
2273 1 -20.5725 -30.0675 26.9025
2274 1 -18.99 -28.485 28.485
2275 2 -20.5725 -30.0675 30.0675
2276 4 -18.99 -28.485 31.65
2277 3 -20.5725 -26.9025 -30.0675
2278 2 -18.99 -25.32 -28.485
2279 1 -20.5725 -26.9025 -26.9025
2280 4 -18.99 -25.32 -25.32
2281 3 -18.99 -25.32 -22.155
2282 4 -20.5725 -26.9025 -20.5725
2283 1 -18.99 -25.32 -18.99
2284 1 -20.5725 -26.9025 -14.2425
2285 2 -18.99 -25.32 -12.66
2286 3 -18.99 -25.32 -9.495
2287 1 -20.5725 -26.9025 -7.9125
2288 4 -18.99 -25.32 -6.33
2289 4 -20.5725 -26.9025 -4.7475
2290 4 -18.99 -25.32 -3.165
2291 3 -20.5725 -26.9025 -1.5825
2292 2 -20.5725 -26.9025 1.5825
2293 1 -18.99 -25.32 3.165
2294 1 -20.5725 -26.9025 4.7475
2295 2 -18.99 -25.32 6.33
2296 1 -20.5725 -26.9025 7.9125
2297 1 -18.99 -25.32 9.495
2298 4 -20.5725 -26.9025 11.0775
2299 2 -18.99 -25.32 12.66
2300 2 -20.5725 -26.9025 14.2425
2301 1 -18.99 -25.32 15.825
2302 1 -20.5725 -26.9025 17.4075
2303 2 -18.99 -25.32 18.99
2304 4 -20.5725 -26.9025 20.5725
2305 2 -18.99 -25.32 22.155
2306 3 -18.99 -25.32 25.32
2307 1 -20.5725 -26.9025 26.9025
2308 1 -18.99 -25.32 28.485
2309 1 -20.5725 -26.9025 30.0675
2310 2 -18.99 -25.32 31.65
2311 3 -20.5725 -23.7375 -30.0675
2312 2 -18.99 -22.155 -28.485
2313 3 -20.5725 -23.7375 -26.9025
2314 3 -18.99 -22.155 -25.32
2315 2 -20.5725 -23.7375 -23.7375
2316 2 -18.99 -22.155 -22.155
2317 4 -18.99 -22.155 -18.99
2318 3 -20.5725 -23.7375 -17.4075
2319 1 -18.99 -22.155 -15.825
2320 2 -20.5725 -23.7375 -14.2425
2321 4 -18.99 -22.155 -12.66
2322 4 -20.5725 -23.7375 -11.0775
2323 3 -18.99 -22.155 -9.495
2324 4 -20.5725 -23.7375 -7.9125
2325 3 -18.99 -22.155 -6.33
2326 4 -20.5725 -23.7375 -4.7475
2327 2 -18.99 -22.155 -3.165
2328 3 -20.5725 -23.7375 -1.5825
2329 3 -18.99 -22.155 0.0
2330 4 -20.5725 -23.7375 1.5825
2331 3 -18.99 -22.155 3.165
2332 1 -20.5725 -23.7375 4.7475
2333 2 -18.99 -22.155 6.33
2334 4 -20.5725 -23.7375 7.9125
2335 2 -18.99 -22.155 9.495
2336 1 -20.5725 -23.7375 11.0775
2337 1 -18.99 -22.155 12.66
2338 3 -20.5725 -23.7375 14.2425
2339 3 -18.99 -22.155 15.825
2340 2 -20.5725 -23.7375 17.4075
2341 2 -18.99 -22.155 18.99
2342 2 -20.5725 -23.7375 20.5725
2343 4 -18.99 -22.155 22.155
2344 2 -20.5725 -23.7375 23.7375
2345 3 -18.99 -22.155 25.32
2346 2 -20.5725 -23.7375 26.9025
2347 2 -18.99 -22.155 28.485
2348 3 -20.5725 -23.7375 30.0675
2349 2 -18.99 -22.155 31.65
2350 2 -20.5725 -20.5725 -30.0675
2351 4 -18.99 -18.99 -28.485
2352 4 -20.5725 -20.5725 -26.9025
2353 2 -18.99 -18.99 -25.32
2354 2 -20.5725 -20.5725 -23.7375
2355 1 -18.99 -18.99 -22.155
2356 1 -20.5725 -20.5725 -20.5725
2357 4 -20.5725 -20.5725 -17.4075
2358 4 -18.99 -18.99 -15.825
2359 1 -20.5725 -20.5725 -14.2425
2360 4 -18.99 -18.99 -12.66
2361 4 -20.5725 -20.5725 -11.0775
2362 3 -20.5725 -20.5725 -7.9125
2363 3 -18.99 -18.99 -6.33
2364 4 -20.5725 -20.5725 -4.7475
2365 4 -18.99 -18.99 -3.165
2366 3 -20.5725 -20.5725 -1.5825
2367 2 -18.99 -18.99 0.0
2368 3 -20.5725 -20.5725 1.5825
2369 2 -18.99 -18.99 3.165
2370 4 -20.5725 -20.5725 4.7475
2371 4 -18.99 -18.99 6.33
2372 2 -20.5725 -20.5725 7.9125
2373 4 -18.99 -18.99 9.495
2374 4 -20.5725 -20.5725 11.0775
2375 1 -18.99 -18.99 12.66
2376 1 -20.5725 -20.5725 14.2425
2377 1 -18.99 -18.99 15.825
2378 1 -20.5725 -20.5725 17.4075
2379 2 -18.99 -18.99 18.99
2380 1 -20.5725 -20.5725 20.5725
2381 1 -18.99 -18.99 22.155
2382 2 -20.5725 -20.5725 23.7375
2383 2 -18.99 -18.99 25.32
2384 4 -20.5725 -20.5725 26.9025
2385 1 -18.99 -18.99 28.485
2386 3 -20.5725 -20.5725 30.0675
2387 4 -18.99 -18.99 31.65
2388 4 -18.99 -15.825 -28.485
2389 4 -20.5725 -17.4075 -26.9025
2390 1 -18.99 -15.825 -25.32
2391 1 -20.5725 -17.4075 -23.7375
2392 4 -18.99 -15.825 -22.155
2393 1 -20.5725 -17.4075 -20.5725
2394 2 -18.99 -15.825 -18.99
2395 3 -20.5725 -17.4075 -17.4075
2396 4 -18.99 -15.825 -15.825
2397 4 -20.5725 -17.4075 -14.2425
2398 2 -18.99 -15.825 -12.66
2399 2 -20.5725 -17.4075 -11.0775
2400 4 -18.99 -15.825 -9.495
2401 2 -18.99 -15.825 -6.33
2402 4 -20.5725 -17.4075 -4.7475
2403 3 -18.99 -15.825 -3.165
2404 1 -20.5725 -17.4075 -1.5825
2405 2 -18.99 -15.825 0.0
2406 2 -20.5725 -17.4075 1.5825
2407 2 -18.99 -15.825 3.165
2408 3 -20.5725 -17.4075 4.7475
2409 1 -18.99 -15.825 6.33
2410 3 -20.5725 -17.4075 7.9125
2411 4 -18.99 -15.825 9.495
2412 4 -20.5725 -17.4075 11.0775
2413 1 -18.99 -15.825 12.66
2414 3 -20.5725 -17.4075 14.2425
2415 3 -18.99 -15.825 15.825
2416 1 -20.5725 -17.4075 17.4075
2417 3 -18.99 -15.825 18.99
2418 3 -20.5725 -17.4075 20.5725
2419 4 -18.99 -15.825 22.155
2420 3 -20.5725 -17.4075 23.7375
2421 4 -18.99 -15.825 25.32
2422 1 -20.5725 -17.4075 26.9025
2423 1 -20.5725 -17.4075 30.0675
2424 2 -18.99 -15.825 31.65
2425 2 -20.5725 -14.2425 -30.0675
2426 1 -18.99 -12.66 -28.485
2427 1 -20.5725 -14.2425 -26.9025
2428 4 -18.99 -12.66 -25.32
2429 4 -20.5725 -14.2425 -23.7375
2430 3 -18.99 -12.66 -22.155
2431 3 -20.5725 -14.2425 -20.5725
2432 4 -20.5725 -14.2425 -17.4075
2433 2 -18.99 -12.66 -15.825
2434 4 -20.5725 -14.2425 -14.2425
2435 2 -18.99 -12.66 -12.66
2436 1 -20.5725 -14.2425 -11.0775
2437 2 -18.99 -12.66 -9.495
2438 4 -20.5725 -14.2425 -7.9125
2439 1 -18.99 -12.66 -6.33
2440 3 -20.5725 -14.2425 -4.7475
2441 1 -18.99 -12.66 -3.165
2442 4 -20.5725 -14.2425 -1.5825
2443 3 -18.99 -12.66 0.0
2444 3 -20.5725 -14.2425 1.5825
2445 3 -18.99 -12.66 3.165
2446 4 -20.5725 -14.2425 4.7475
2447 4 -18.99 -12.66 6.33
2448 4 -20.5725 -14.2425 7.9125
2449 1 -18.99 -12.66 9.495
2450 4 -20.5725 -14.2425 11.0775
2451 4 -18.99 -12.66 12.66
2452 3 -20.5725 -14.2425 14.2425
2453 4 -20.5725 -14.2425 17.4075
2454 3 -18.99 -12.66 18.99
2455 1 -20.5725 -14.2425 20.5725
2456 2 -18.99 -12.66 22.155
2457 4 -20.5725 -14.2425 23.7375
2458 2 -20.5725 -14.2425 26.9025
2459 4 -18.99 -12.66 28.485
2460 4 -20.5725 -14.2425 30.0675
2461 2 -18.99 -12.66 31.65
2462 2 -20.5725 -11.0775 -30.0675
2463 1 -18.99 -9.495 -28.485
2464 1 -20.5725 -11.0775 -26.9025
2465 3 -18.99 -9.495 -25.32
2466 2 -20.5725 -11.0775 -23.7375
2467 3 -18.99 -9.495 -22.155
2468 4 -20.5725 -11.0775 -20.5725
2469 1 -18.99 -9.495 -18.99
2470 4 -20.5725 -11.0775 -17.4075
2471 2 -18.99 -9.495 -15.825
2472 2 -20.5725 -11.0775 -14.2425
2473 3 -18.99 -9.495 -12.66
2474 1 -20.5725 -11.0775 -11.0775
2475 1 -18.99 -9.495 -9.495
2476 1 -20.5725 -11.0775 -7.9125
2477 3 -18.99 -9.495 -6.33
2478 2 -20.5725 -11.0775 -4.7475
2479 3 -18.99 -9.495 -3.165
2480 4 -20.5725 -11.0775 -1.5825
2481 3 -18.99 -9.495 0.0
2482 2 -20.5725 -11.0775 1.5825
2483 3 -18.99 -9.495 3.165
2484 3 -20.5725 -11.0775 4.7475
2485 4 -18.99 -9.495 6.33
2486 2 -20.5725 -11.0775 7.9125
2487 2 -18.99 -9.495 9.495
2488 3 -20.5725 -11.0775 11.0775
2489 3 -18.99 -9.495 12.66
2490 4 -20.5725 -11.0775 14.2425
2491 1 -18.99 -9.495 15.825
2492 2 -20.5725 -11.0775 17.4075
2493 3 -18.99 -9.495 18.99
2494 4 -20.5725 -11.0775 20.5725
2495 1 -18.99 -9.495 22.155
2496 1 -20.5725 -11.0775 23.7375
2497 2 -18.99 -9.495 25.32
2498 3 -20.5725 -11.0775 26.9025
2499 1 -18.99 -9.495 28.485
2500 2 -20.5725 -11.0775 30.0675
2501 4 -18.99 -9.495 31.65
2502 1 -20.5725 -7.9125 -30.0675
2503 1 -18.99 -6.33 -28.485
2504 3 -20.5725 -7.9125 -26.9025
2505 3 -18.99 -6.33 -25.32
2506 1 -20.5725 -7.9125 -23.7375
2507 4 -18.99 -6.33 -22.155
2508 4 -18.99 -6.33 -18.99
2509 4 -20.5725 -7.9125 -17.4075
2510 2 -18.99 -6.33 -15.825
2511 1 -20.5725 -7.9125 -11.0775
2512 4 -18.99 -6.33 -9.495
2513 3 -20.5725 -7.9125 -7.9125
2514 3 -18.99 -6.33 -6.33
2515 4 -20.5725 -7.9125 -4.7475
2516 1 -18.99 -6.33 -3.165
2517 3 -20.5725 -7.9125 -1.5825
2518 2 -18.99 -6.33 0.0
2519 3 -20.5725 -7.9125 1.5825
2520 4 -18.99 -6.33 3.165
2521 4 -20.5725 -7.9125 4.7475
2522 1 -18.99 -6.33 6.33
2523 2 -20.5725 -7.9125 7.9125
2524 3 -18.99 -6.33 9.495
2525 1 -20.5725 -7.9125 11.0775
2526 1 -18.99 -6.33 12.66
2527 2 -20.5725 -7.9125 14.2425
2528 3 -18.99 -6.33 15.825
2529 3 -20.5725 -7.9125 17.4075
2530 3 -20.5725 -7.9125 20.5725
2531 2 -18.99 -6.33 22.155
2532 1 -20.5725 -7.9125 23.7375
2533 4 -20.5725 -7.9125 26.9025
2534 4 -18.99 -6.33 28.485
2535 4 -20.5725 -7.9125 30.0675
2536 3 -18.99 -6.33 31.65
2537 3 -20.5725 -4.7475 -30.0675
2538 2 -18.99 -3.165 -28.485
2539 2 -20.5725 -4.7475 -26.9025
2540 4 -18.99 -3.165 -25.32
2541 3 -20.5725 -4.7475 -23.7375
2542 4 -18.99 -3.165 -22.155
2543 3 -20.5725 -4.7475 -20.5725
2544 1 -18.99 -3.165 -18.99
2545 3 -20.5725 -4.7475 -17.4075
2546 2 -18.99 -3.165 -15.825
2547 4 -20.5725 -4.7475 -14.2425
2548 4 -18.99 -3.165 -12.66
2549 1 -20.5725 -4.7475 -11.0775
2550 4 -18.99 -3.165 -9.495
2551 1 -20.5725 -4.7475 -7.9125
2552 2 -18.99 -3.165 -6.33
2553 4 -20.5725 -4.7475 -4.7475
2554 3 -18.99 -3.165 -3.165
2555 4 -20.5725 -4.7475 -1.5825
2556 1 -18.99 -3.165 0.0
2557 2 -20.5725 -4.7475 1.5825
2558 3 -18.99 -3.165 3.165
2559 4 -20.5725 -4.7475 4.7475
2560 4 -18.99 -3.165 6.33
2561 1 -20.5725 -4.7475 7.9125
2562 3 -18.99 -3.165 9.495
2563 1 -20.5725 -4.7475 11.0775
2564 2 -18.99 -3.165 12.66
2565 1 -20.5725 -4.7475 14.2425
2566 4 -18.99 -3.165 15.825
2567 2 -20.5725 -4.7475 17.4075
2568 1 -18.99 -3.165 18.99
2569 1 -20.5725 -4.7475 20.5725
2570 1 -18.99 -3.165 22.155
2571 1 -20.5725 -4.7475 23.7375
2572 3 -18.99 -3.165 25.32
2573 2 -18.99 -3.165 28.485
2574 3 -20.5725 -4.7475 30.0675
2575 1 -18.99 -3.165 31.65
2576 1 -20.5725 -1.5825 -30.0675
2577 4 -18.99 0.0 -28.485
2578 2 -20.5725 -1.5825 -26.9025
2579 1 -18.99 0.0 -25.32
2580 2 -20.5725 -1.5825 -23.7375
2581 1 -18.99 0.0 -22.155
2582 4 -20.5725 -1.5825 -20.5725
2583 1 -18.99 0.0 -18.99
2584 2 -20.5725 -1.5825 -17.4075
2585 3 -18.99 0.0 -15.825
2586 4 -20.5725 -1.5825 -14.2425
2587 1 -18.99 0.0 -12.66
2588 4 -20.5725 -1.5825 -11.0775
2589 3 -20.5725 -1.5825 -7.9125
2590 3 -18.99 0.0 -6.33
2591 2 -20.5725 -1.5825 -4.7475
2592 3 -18.99 0.0 -3.165
2593 4 -20.5725 -1.5825 -1.5825
2594 2 -18.99 0.0 0.0
2595 3 -20.5725 -1.5825 1.5825
2596 4 -18.99 0.0 3.165
2597 2 -20.5725 -1.5825 4.7475
2598 4 -20.5725 -1.5825 7.9125
2599 3 -18.99 0.0 9.495
2600 2 -18.99 0.0 12.66
2601 4 -20.5725 -1.5825 14.2425
2602 4 -18.99 0.0 15.825
2603 3 -20.5725 -1.5825 17.4075
2604 4 -18.99 0.0 18.99
2605 3 -20.5725 -1.5825 20.5725
2606 3 -18.99 0.0 22.155
2607 1 -20.5725 -1.5825 23.7375
2608 3 -18.99 0.0 25.32
2609 1 -20.5725 -1.5825 26.9025
2610 3 -18.99 0.0 28.485
2611 3 -20.5725 -1.5825 30.0675
2612 2 -18.99 0.0 31.65
2613 3 -18.99 3.165 -28.485
2614 1 -20.5725 1.5825 -26.9025
2615 3 -18.99 3.165 -25.32
2616 1 -20.5725 1.5825 -23.7375
2617 1 -18.99 3.165 -22.155
2618 1 -20.5725 1.5825 -20.5725
2619 3 -18.99 3.165 -18.99
2620 1 -20.5725 1.5825 -17.4075
2621 2 -18.99 3.165 -15.825
2622 2 -20.5725 1.5825 -14.2425
2623 4 -18.99 3.165 -12.66
2624 1 -20.5725 1.5825 -11.0775
2625 1 -18.99 3.165 -9.495
2626 4 -20.5725 1.5825 -7.9125
2627 3 -18.99 3.165 -6.33
2628 1 -20.5725 1.5825 -4.7475
2629 1 -18.99 3.165 -3.165
2630 4 -20.5725 1.5825 -1.5825
2631 4 -18.99 3.165 0.0
2632 4 -20.5725 1.5825 1.5825
2633 3 -18.99 3.165 3.165
2634 1 -20.5725 1.5825 4.7475
2635 4 -18.99 3.165 6.33
2636 2 -20.5725 1.5825 7.9125
2637 1 -18.99 3.165 9.495
2638 4 -20.5725 1.5825 11.0775
2639 3 -18.99 3.165 12.66
2640 3 -20.5725 1.5825 14.2425
2641 1 -18.99 3.165 15.825
2642 3 -20.5725 1.5825 17.4075
2643 3 -20.5725 1.5825 20.5725
2644 4 -18.99 3.165 22.155
2645 1 -20.5725 1.5825 23.7375
2646 2 -18.99 3.165 25.32
2647 3 -20.5725 1.5825 26.9025
2648 2 -18.99 3.165 28.485
2649 3 -20.5725 1.5825 30.0675
2650 3 -18.99 3.165 31.65
2651 1 -20.5725 4.7475 -30.0675
2652 1 -18.99 6.33 -28.485
2653 4 -20.5725 4.7475 -26.9025
2654 2 -18.99 6.33 -25.32
2655 3 -20.5725 4.7475 -23.7375
2656 3 -18.99 6.33 -22.155
2657 4 -20.5725 4.7475 -20.5725
2658 1 -18.99 6.33 -18.99
2659 2 -20.5725 4.7475 -17.4075
2660 1 -18.99 6.33 -15.825
2661 4 -20.5725 4.7475 -14.2425
2662 1 -18.99 6.33 -12.66
2663 1 -18.99 6.33 -9.495
2664 3 -20.5725 4.7475 -7.9125
2665 2 -18.99 6.33 -6.33
2666 2 -20.5725 4.7475 -4.7475
2667 1 -18.99 6.33 -3.165
2668 3 -20.5725 4.7475 -1.5825
2669 2 -18.99 6.33 0.0
2670 1 -20.5725 4.7475 1.5825
2671 4 -18.99 6.33 3.165
2672 4 -20.5725 4.7475 4.7475
2673 2 -18.99 6.33 6.33
2674 2 -18.99 6.33 9.495
2675 2 -20.5725 4.7475 11.0775
2676 2 -18.99 6.33 12.66
2677 1 -20.5725 4.7475 14.2425
2678 2 -18.99 6.33 15.825
2679 4 -20.5725 4.7475 17.4075
2680 3 -18.99 6.33 18.99
2681 1 -20.5725 4.7475 20.5725
2682 2 -18.99 6.33 22.155
2683 1 -20.5725 4.7475 23.7375
2684 3 -18.99 6.33 25.32
2685 3 -20.5725 4.7475 26.9025
2686 1 -18.99 6.33 28.485
2687 1 -20.5725 4.7475 30.0675
2688 2 -18.99 6.33 31.65
2689 4 -20.5725 7.9125 -30.0675
2690 4 -20.5725 7.9125 -26.9025
2691 4 -18.99 9.495 -25.32
2692 3 -20.5725 7.9125 -23.7375
2693 1 -18.99 9.495 -22.155
2694 4 -20.5725 7.9125 -20.5725
2695 4 -18.99 9.495 -18.99
2696 4 -20.5725 7.9125 -17.4075
2697 3 -18.99 9.495 -15.825
2698 4 -20.5725 7.9125 -14.2425
2699 3 -18.99 9.495 -12.66
2700 3 -20.5725 7.9125 -11.0775
2701 3 -18.99 9.495 -9.495
2702 1 -20.5725 7.9125 -7.9125
2703 4 -18.99 9.495 -6.33
2704 3 -20.5725 7.9125 -4.7475
2705 4 -18.99 9.495 -3.165
2706 2 -18.99 9.495 0.0
2707 1 -20.5725 7.9125 1.5825
2708 1 -18.99 9.495 3.165
2709 2 -20.5725 7.9125 4.7475
2710 1 -18.99 9.495 6.33
2711 4 -20.5725 7.9125 7.9125
2712 4 -18.99 9.495 9.495
2713 1 -20.5725 7.9125 11.0775
2714 4 -18.99 9.495 12.66
2715 4 -20.5725 7.9125 14.2425
2716 4 -18.99 9.495 15.825
2717 4 -20.5725 7.9125 17.4075
2718 1 -18.99 9.495 18.99
2719 4 -20.5725 7.9125 20.5725
2720 4 -18.99 9.495 22.155
2721 1 -20.5725 7.9125 23.7375
2722 2 -18.99 9.495 25.32
2723 2 -20.5725 7.9125 26.9025
2724 1 -20.5725 7.9125 30.0675
2725 2 -18.99 9.495 31.65
2726 1 -20.5725 11.0775 -30.0675
2727 4 -18.99 12.66 -28.485
2728 2 -20.5725 11.0775 -26.9025
2729 4 -18.99 12.66 -25.32
2730 2 -20.5725 11.0775 -23.7375
2731 1 -18.99 12.66 -22.155
2732 2 -20.5725 11.0775 -20.5725
2733 3 -18.99 12.66 -18.99
2734 4 -20.5725 11.0775 -17.4075
2735 3 -18.99 12.66 -15.825
2736 1 -20.5725 11.0775 -14.2425
2737 4 -18.99 12.66 -12.66
2738 4 -20.5725 11.0775 -11.0775
2739 3 -18.99 12.66 -9.495
2740 3 -20.5725 11.0775 -7.9125
2741 4 -18.99 12.66 -6.33
2742 2 -18.99 12.66 -3.165
2743 4 -20.5725 11.0775 -1.5825
2744 4 -18.99 12.66 0.0
2745 3 -20.5725 11.0775 1.5825
2746 3 -18.99 12.66 3.165
2747 3 -20.5725 11.0775 4.7475
2748 4 -18.99 12.66 6.33
2749 1 -20.5725 11.0775 7.9125
2750 4 -18.99 12.66 9.495
2751 3 -20.5725 11.0775 11.0775
2752 2 -18.99 12.66 12.66
2753 4 -20.5725 11.0775 14.2425
2754 1 -20.5725 11.0775 17.4075
2755 2 -18.99 12.66 18.99
2756 3 -20.5725 11.0775 20.5725
2757 3 -18.99 12.66 22.155
2758 3 -18.99 12.66 25.32
2759 3 -20.5725 11.0775 26.9025
2760 2 -18.99 12.66 28.485
2761 1 -20.5725 11.0775 30.0675
2762 1 -18.99 12.66 31.65
2763 3 -20.5725 14.2425 -30.0675
2764 2 -18.99 15.825 -28.485
2765 4 -20.5725 14.2425 -26.9025
2766 1 -18.99 15.825 -25.32
2767 1 -20.5725 14.2425 -23.7375
2768 2 -18.99 15.825 -22.155
2769 1 -20.5725 14.2425 -20.5725
2770 4 -18.99 15.825 -18.99
2771 1 -20.5725 14.2425 -17.4075
2772 1 -18.99 15.825 -15.825
2773 1 -20.5725 14.2425 -14.2425
2774 2 -18.99 15.825 -12.66
2775 2 -18.99 15.825 -9.495
2776 2 -20.5725 14.2425 -7.9125
2777 3 -18.99 15.825 -6.33
2778 4 -20.5725 14.2425 -4.7475
2779 4 -18.99 15.825 -3.165
2780 4 -18.99 15.825 0.0
2781 4 -20.5725 14.2425 1.5825
2782 1 -20.5725 14.2425 4.7475
2783 2 -18.99 15.825 6.33
2784 2 -20.5725 14.2425 7.9125
2785 2 -18.99 15.825 9.495
2786 3 -20.5725 14.2425 11.0775
2787 4 -18.99 15.825 12.66
2788 3 -20.5725 14.2425 14.2425
2789 2 -18.99 15.825 15.825
2790 1 -20.5725 14.2425 17.4075
2791 2 -18.99 15.825 18.99
2792 1 -20.5725 14.2425 20.5725
2793 1 -18.99 15.825 22.155
2794 4 -20.5725 14.2425 23.7375
2795 3 -18.99 15.825 25.32
2796 3 -20.5725 14.2425 26.9025
2797 3 -18.99 15.825 28.485
2798 1 -20.5725 14.2425 30.0675
2799 3 -18.99 15.825 31.65
2800 3 -20.5725 17.4075 -30.0675
2801 1 -18.99 18.99 -28.485
2802 3 -20.5725 17.4075 -26.9025
2803 3 -18.99 18.99 -25.32
2804 4 -20.5725 17.4075 -23.7375
2805 1 -18.99 18.99 -22.155
2806 1 -18.99 18.99 -18.99
2807 2 -18.99 18.99 -15.825
2808 1 -20.5725 17.4075 -14.2425
2809 1 -18.99 18.99 -12.66
2810 4 -20.5725 17.4075 -11.0775
2811 1 -18.99 18.99 -9.495
2812 3 -20.5725 17.4075 -7.9125
2813 3 -18.99 18.99 -6.33
2814 4 -18.99 18.99 -3.165
2815 2 -20.5725 17.4075 -1.5825
2816 3 -18.99 18.99 0.0
2817 3 -20.5725 17.4075 1.5825
2818 1 -18.99 18.99 3.165
2819 1 -20.5725 17.4075 4.7475
2820 3 -18.99 18.99 6.33
2821 1 -20.5725 17.4075 7.9125
2822 2 -18.99 18.99 9.495
2823 1 -20.5725 17.4075 11.0775
2824 4 -20.5725 17.4075 14.2425
2825 4 -18.99 18.99 15.825
2826 1 -20.5725 17.4075 17.4075
2827 1 -18.99 18.99 18.99
2828 1 -20.5725 17.4075 20.5725
2829 3 -18.99 18.99 22.155
2830 1 -20.5725 17.4075 23.7375
2831 1 -18.99 18.99 25.32
2832 1 -20.5725 17.4075 26.9025
2833 2 -20.5725 17.4075 30.0675
2834 1 -18.99 18.99 31.65
2835 1 -20.5725 20.5725 -30.0675
2836 1 -18.99 22.155 -28.485
2837 2 -20.5725 20.5725 -26.9025
2838 3 -18.99 22.155 -25.32
2839 2 -20.5725 20.5725 -23.7375
2840 2 -18.99 22.155 -22.155
2841 3 -20.5725 20.5725 -20.5725
2842 4 -18.99 22.155 -18.99
2843 2 -20.5725 20.5725 -17.4075
2844 2 -18.99 22.155 -15.825
2845 1 -20.5725 20.5725 -14.2425
2846 3 -18.99 22.155 -12.66
2847 1 -20.5725 20.5725 -11.0775
2848 2 -18.99 22.155 -9.495
2849 4 -20.5725 20.5725 -7.9125
2850 4 -18.99 22.155 -6.33
2851 1 -20.5725 20.5725 -4.7475
2852 4 -18.99 22.155 -3.165
2853 1 -20.5725 20.5725 -1.5825
2854 4 -18.99 22.155 0.0
2855 4 -20.5725 20.5725 1.5825
2856 3 -18.99 22.155 3.165
2857 2 -20.5725 20.5725 4.7475
2858 1 -18.99 22.155 6.33
2859 1 -20.5725 20.5725 7.9125
2860 2 -18.99 22.155 9.495
2861 3 -20.5725 20.5725 11.0775
2862 2 -18.99 22.155 12.66
2863 2 -20.5725 20.5725 14.2425
2864 3 -18.99 22.155 15.825
2865 3 -20.5725 20.5725 17.4075
2866 4 -18.99 22.155 18.99
2867 3 -20.5725 20.5725 20.5725
2868 2 -18.99 22.155 22.155
2869 2 -20.5725 20.5725 23.7375
2870 1 -18.99 22.155 25.32
2871 2 -20.5725 20.5725 26.9025
2872 2 -18.99 22.155 28.485
2873 2 -20.5725 20.5725 30.0675
2874 1 -18.99 22.155 31.65
2875 3 -20.5725 23.7375 -30.0675
2876 3 -18.99 25.32 -28.485
2877 1 -20.5725 23.7375 -26.9025
2878 2 -18.99 25.32 -25.32
2879 2 -20.5725 23.7375 -23.7375
2880 4 -18.99 25.32 -22.155
2881 4 -20.5725 23.7375 -20.5725
2882 1 -18.99 25.32 -18.99
2883 2 -20.5725 23.7375 -17.4075
2884 2 -18.99 25.32 -15.825
2885 1 -20.5725 23.7375 -14.2425
2886 1 -18.99 25.32 -12.66
2887 3 -20.5725 23.7375 -11.0775
2888 3 -18.99 25.32 -9.495
2889 3 -20.5725 23.7375 -7.9125
2890 3 -18.99 25.32 -6.33
2891 3 -20.5725 23.7375 -4.7475
2892 1 -18.99 25.32 -3.165
2893 4 -20.5725 23.7375 -1.5825
2894 3 -18.99 25.32 0.0
2895 3 -20.5725 23.7375 1.5825
2896 3 -18.99 25.32 3.165
2897 1 -20.5725 23.7375 4.7475
2898 3 -18.99 25.32 6.33
2899 3 -20.5725 23.7375 7.9125
2900 2 -20.5725 23.7375 11.0775
2901 2 -18.99 25.32 12.66
2902 1 -20.5725 23.7375 14.2425
2903 4 -18.99 25.32 15.825
2904 1 -20.5725 23.7375 17.4075
2905 2 -20.5725 23.7375 20.5725
2906 1 -18.99 25.32 22.155
2907 1 -20.5725 23.7375 23.7375
2908 2 -18.99 25.32 25.32
2909 2 -20.5725 23.7375 26.9025
2910 2 -18.99 25.32 28.485
2911 4 -20.5725 23.7375 30.0675
2912 1 -18.99 25.32 31.65
2913 1 -20.5725 26.9025 -30.0675
2914 2 -18.99 28.485 -28.485
2915 1 -18.99 28.485 -25.32
2916 1 -20.5725 26.9025 -23.7375
2917 4 -18.99 28.485 -22.155
2918 1 -20.5725 26.9025 -20.5725
2919 3 -18.99 28.485 -18.99
2920 3 -20.5725 26.9025 -17.4075
2921 4 -18.99 28.485 -15.825
2922 4 -20.5725 26.9025 -14.2425
2923 2 -18.99 28.485 -12.66
2924 4 -20.5725 26.9025 -11.0775
2925 3 -20.5725 26.9025 -7.9125
2926 4 -18.99 28.485 -6.33
2927 3 -20.5725 26.9025 -4.7475
2928 1 -18.99 28.485 -3.165
2929 2 -20.5725 26.9025 -1.5825
2930 4 -18.99 28.485 0.0
2931 2 -20.5725 26.9025 1.5825
2932 1 -20.5725 26.9025 4.7475
2933 2 -18.99 28.485 6.33
2934 1 -20.5725 26.9025 7.9125
2935 1 -18.99 28.485 9.495
2936 3 -20.5725 26.9025 11.0775
2937 4 -18.99 28.485 12.66
2938 1 -18.99 28.485 15.825
2939 1 -20.5725 26.9025 17.4075
2940 3 -18.99 28.485 18.99
2941 3 -20.5725 26.9025 20.5725
2942 2 -18.99 28.485 22.155
2943 2 -20.5725 26.9025 23.7375
2944 3 -18.99 28.485 25.32
2945 3 -18.99 28.485 28.485
2946 1 -20.5725 26.9025 30.0675
2947 4 -18.99 28.485 31.65
2948 3 -20.5725 30.0675 -30.0675
2949 1 -18.99 31.65 -28.485
2950 1 -20.5725 30.0675 -26.9025
2951 4 -18.99 31.65 -25.32
2952 1 -20.5725 30.0675 -23.7375
2953 4 -18.99 31.65 -22.155
2954 1 -20.5725 30.0675 -20.5725
2955 4 -18.99 31.65 -18.99
2956 4 -20.5725 30.0675 -17.4075
2957 4 -18.99 31.65 -15.825
2958 1 -20.5725 30.0675 -14.2425
2959 3 -18.99 31.65 -12.66
2960 2 -20.5725 30.0675 -11.0775
2961 3 -18.99 31.65 -9.495
2962 2 -20.5725 30.0675 -7.9125
2963 2 -18.99 31.65 -6.33
2964 4 -20.5725 30.0675 -4.7475
2965 1 -18.99 31.65 -3.165
2966 2 -20.5725 30.0675 -1.5825
2967 1 -18.99 31.65 0.0
2968 4 -18.99 31.65 3.165
2969 3 -20.5725 30.0675 4.7475
2970 1 -18.99 31.65 6.33
2971 2 -20.5725 30.0675 7.9125
2972 4 -18.99 31.65 9.495
2973 1 -20.5725 30.0675 11.0775
2974 3 -18.99 31.65 12.66
2975 4 -20.5725 30.0675 14.2425
2976 3 -18.99 31.65 15.825
2977 1 -20.5725 30.0675 17.4075
2978 1 -18.99 31.65 18.99
2979 4 -20.5725 30.0675 20.5725
2980 3 -18.99 31.65 22.155
2981 2 -20.5725 30.0675 23.7375
2982 4 -18.99 31.65 25.32
2983 3 -20.5725 30.0675 26.9025
2984 3 -18.99 31.65 28.485
2985 2 -20.5725 30.0675 30.0675
2986 2 -18.99 31.65 31.65
2987 1 -17.4075 -30.0675 -30.0675
2988 4 -15.825 -28.485 -28.485
2989 3 -17.4075 -30.0675 -26.9025
2990 3 -15.825 -28.485 -25.32
2991 2 -17.4075 -30.0675 -23.7375
2992 2 -15.825 -28.485 -22.155
2993 3 -17.4075 -30.0675 -20.5725
2994 1 -15.825 -28.485 -18.99
2995 2 -17.4075 -30.0675 -17.4075
2996 4 -15.825 -28.485 -15.825
2997 3 -17.4075 -30.0675 -14.2425
2998 2 -15.825 -28.485 -12.66
2999 3 -17.4075 -30.0675 -11.0775
3000 2 -15.825 -28.485 -9.495
3001 3 -17.4075 -30.0675 -7.9125
3002 1 -15.825 -28.485 -6.33
3003 4 -17.4075 -30.0675 -4.7475
3004 3 -15.825 -28.485 -3.165
3005 2 -17.4075 -30.0675 -1.5825
3006 4 -15.825 -28.485 0.0
3007 2 -17.4075 -30.0675 1.5825
3008 1 -15.825 -28.485 3.165
3009 2 -17.4075 -30.0675 4.7475
3010 3 -15.825 -28.485 6.33
3011 4 -17.4075 -30.0675 7.9125
3012 2 -15.825 -28.485 9.495
3013 4 -17.4075 -30.0675 11.0775
3014 3 -15.825 -28.485 12.66
3015 3 -17.4075 -30.0675 14.2425
3016 4 -15.825 -28.485 15.825
3017 2 -17.4075 -30.0675 17.4075
3018 2 -15.825 -28.485 18.99
3019 2 -17.4075 -30.0675 20.5725
3020 3 -17.4075 -30.0675 23.7375
3021 3 -15.825 -28.485 25.32
3022 3 -17.4075 -30.0675 26.9025
3023 3 -15.825 -28.485 28.485
3024 2 -17.4075 -30.0675 30.0675
3025 1 -15.825 -28.485 31.65
3026 1 -17.4075 -26.9025 -30.0675
3027 3 -17.4075 -26.9025 -26.9025
3028 2 -15.825 -25.32 -25.32
3029 1 -17.4075 -26.9025 -23.7375
3030 3 -15.825 -25.32 -22.155
3031 3 -17.4075 -26.9025 -20.5725
3032 1 -15.825 -25.32 -18.99
3033 3 -17.4075 -26.9025 -17.4075
3034 2 -15.825 -25.32 -15.825
3035 1 -17.4075 -26.9025 -14.2425
3036 2 -15.825 -25.32 -12.66
3037 2 -15.825 -25.32 -9.495
3038 2 -17.4075 -26.9025 -7.9125
3039 4 -15.825 -25.32 -6.33
3040 3 -17.4075 -26.9025 -4.7475
3041 4 -15.825 -25.32 -3.165
3042 3 -17.4075 -26.9025 -1.5825
3043 3 -15.825 -25.32 0.0
3044 4 -17.4075 -26.9025 1.5825
3045 3 -17.4075 -26.9025 4.7475
3046 4 -15.825 -25.32 6.33
3047 3 -17.4075 -26.9025 7.9125
3048 4 -15.825 -25.32 9.495
3049 1 -17.4075 -26.9025 11.0775
3050 4 -17.4075 -26.9025 17.4075
3051 1 -15.825 -25.32 18.99
3052 4 -17.4075 -26.9025 20.5725
3053 4 -15.825 -25.32 22.155
3054 1 -17.4075 -26.9025 23.7375
3055 4 -15.825 -25.32 25.32
3056 4 -17.4075 -26.9025 26.9025
3057 2 -15.825 -25.32 28.485
3058 4 -17.4075 -26.9025 30.0675
3059 2 -15.825 -25.32 31.65
3060 1 -17.4075 -23.7375 -30.0675
3061 3 -15.825 -22.155 -28.485
3062 3 -17.4075 -23.7375 -26.9025
3063 2 -15.825 -22.155 -25.32
3064 1 -17.4075 -23.7375 -23.7375
3065 3 -15.825 -22.155 -22.155
3066 1 -17.4075 -23.7375 -20.5725
3067 4 -15.825 -22.155 -18.99
3068 2 -17.4075 -23.7375 -17.4075
3069 2 -15.825 -22.155 -15.825
3070 1 -17.4075 -23.7375 -14.2425
3071 4 -15.825 -22.155 -12.66
3072 2 -17.4075 -23.7375 -11.0775
3073 1 -15.825 -22.155 -9.495
3074 4 -17.4075 -23.7375 -7.9125
3075 1 -15.825 -22.155 -6.33
3076 2 -17.4075 -23.7375 -4.7475
3077 1 -15.825 -22.155 -3.165
3078 2 -17.4075 -23.7375 -1.5825
3079 4 -15.825 -22.155 0.0
3080 1 -17.4075 -23.7375 1.5825
3081 3 -15.825 -22.155 3.165
3082 2 -17.4075 -23.7375 4.7475
3083 1 -15.825 -22.155 6.33
3084 1 -17.4075 -23.7375 7.9125
3085 1 -15.825 -22.155 9.495
3086 4 -17.4075 -23.7375 11.0775
3087 3 -15.825 -22.155 12.66
3088 3 -17.4075 -23.7375 14.2425
3089 1 -15.825 -22.155 15.825
3090 2 -17.4075 -23.7375 17.4075
3091 3 -15.825 -22.155 18.99
3092 2 -17.4075 -23.7375 20.5725
3093 3 -15.825 -22.155 22.155
3094 1 -17.4075 -23.7375 23.7375
3095 4 -15.825 -22.155 25.32
3096 1 -17.4075 -23.7375 26.9025
3097 3 -15.825 -22.155 28.485
3098 4 -17.4075 -23.7375 30.0675
3099 1 -15.825 -22.155 31.65
3100 1 -17.4075 -20.5725 -30.0675
3101 4 -17.4075 -20.5725 -26.9025
3102 1 -15.825 -18.99 -25.32
3103 4 -17.4075 -20.5725 -23.7375
3104 3 -15.825 -18.99 -22.155
3105 4 -17.4075 -20.5725 -20.5725
3106 3 -15.825 -18.99 -18.99
3107 1 -17.4075 -20.5725 -17.4075
3108 4 -15.825 -18.99 -15.825
3109 4 -17.4075 -20.5725 -14.2425
3110 1 -15.825 -18.99 -12.66
3111 3 -17.4075 -20.5725 -11.0775
3112 4 -15.825 -18.99 -9.495
3113 1 -17.4075 -20.5725 -7.9125
3114 2 -15.825 -18.99 -6.33
3115 3 -17.4075 -20.5725 -4.7475
3116 2 -15.825 -18.99 -3.165
3117 1 -17.4075 -20.5725 -1.5825
3118 2 -15.825 -18.99 0.0
3119 3 -17.4075 -20.5725 1.5825
3120 4 -15.825 -18.99 3.165
3121 4 -17.4075 -20.5725 4.7475
3122 1 -17.4075 -20.5725 7.9125
3123 1 -15.825 -18.99 9.495
3124 2 -17.4075 -20.5725 11.0775
3125 2 -15.825 -18.99 12.66
3126 2 -17.4075 -20.5725 14.2425
3127 1 -15.825 -18.99 15.825
3128 1 -17.4075 -20.5725 17.4075
3129 3 -15.825 -18.99 18.99
3130 4 -17.4075 -20.5725 20.5725
3131 4 -15.825 -18.99 22.155
3132 1 -17.4075 -20.5725 23.7375
3133 2 -15.825 -18.99 25.32
3134 4 -17.4075 -20.5725 26.9025
3135 1 -15.825 -18.99 28.485
3136 2 -17.4075 -20.5725 30.0675
3137 2 -15.825 -18.99 31.65
3138 3 -17.4075 -17.4075 -30.0675
3139 4 -15.825 -15.825 -28.485
3140 1 -17.4075 -17.4075 -26.9025
3141 1 -15.825 -15.825 -25.32
3142 3 -17.4075 -17.4075 -23.7375
3143 2 -15.825 -15.825 -22.155
3144 4 -17.4075 -17.4075 -20.5725
3145 3 -15.825 -15.825 -18.99
3146 2 -17.4075 -17.4075 -17.4075
3147 2 -15.825 -15.825 -15.825
3148 1 -17.4075 -17.4075 -14.2425
3149 1 -15.825 -15.825 -12.66
3150 2 -17.4075 -17.4075 -11.0775
3151 1 -15.825 -15.825 -9.495
3152 2 -17.4075 -17.4075 -7.9125
3153 3 -15.825 -15.825 -6.33
3154 3 -17.4075 -17.4075 -4.7475
3155 3 -15.825 -15.825 -3.165
3156 2 -17.4075 -17.4075 -1.5825
3157 1 -15.825 -15.825 0.0
3158 2 -17.4075 -17.4075 1.5825
3159 2 -15.825 -15.825 3.165
3160 2 -17.4075 -17.4075 4.7475
3161 3 -15.825 -15.825 6.33
3162 3 -17.4075 -17.4075 7.9125
3163 3 -15.825 -15.825 9.495
3164 4 -17.4075 -17.4075 11.0775
3165 2 -15.825 -15.825 12.66
3166 4 -17.4075 -17.4075 14.2425
3167 4 -15.825 -15.825 15.825
3168 2 -17.4075 -17.4075 17.4075
3169 3 -15.825 -15.825 18.99
3170 4 -17.4075 -17.4075 20.5725
3171 4 -15.825 -15.825 22.155
3172 4 -17.4075 -17.4075 23.7375
3173 4 -17.4075 -17.4075 26.9025
3174 1 -15.825 -15.825 28.485
3175 1 -17.4075 -17.4075 30.0675
3176 4 -15.825 -15.825 31.65
3177 2 -17.4075 -14.2425 -30.0675
3178 2 -15.825 -12.66 -28.485
3179 3 -17.4075 -14.2425 -26.9025
3180 2 -15.825 -12.66 -25.32
3181 3 -17.4075 -14.2425 -23.7375
3182 4 -17.4075 -14.2425 -20.5725
3183 3 -15.825 -12.66 -18.99
3184 1 -17.4075 -14.2425 -17.4075
3185 3 -15.825 -12.66 -15.825
3186 1 -17.4075 -14.2425 -14.2425
3187 2 -15.825 -12.66 -12.66
3188 4 -17.4075 -14.2425 -11.0775
3189 3 -15.825 -12.66 -9.495
3190 1 -17.4075 -14.2425 -7.9125
3191 2 -15.825 -12.66 -6.33
3192 4 -17.4075 -14.2425 -4.7475
3193 1 -15.825 -12.66 -3.165
3194 2 -17.4075 -14.2425 -1.5825
3195 4 -15.825 -12.66 0.0
3196 1 -17.4075 -14.2425 1.5825
3197 3 -15.825 -12.66 3.165
3198 3 -17.4075 -14.2425 4.7475
3199 3 -15.825 -12.66 6.33
3200 1 -17.4075 -14.2425 7.9125
3201 1 -15.825 -12.66 9.495
3202 1 -17.4075 -14.2425 11.0775
3203 4 -15.825 -12.66 12.66
3204 3 -17.4075 -14.2425 14.2425
3205 2 -15.825 -12.66 15.825
3206 1 -17.4075 -14.2425 17.4075
3207 1 -15.825 -12.66 18.99
3208 3 -17.4075 -14.2425 20.5725
3209 3 -15.825 -12.66 22.155
3210 1 -17.4075 -14.2425 23.7375
3211 2 -15.825 -12.66 25.32
3212 3 -17.4075 -14.2425 26.9025
3213 3 -15.825 -12.66 28.485
3214 4 -17.4075 -14.2425 30.0675
3215 2 -15.825 -12.66 31.65
3216 3 -17.4075 -11.0775 -30.0675
3217 1 -15.825 -9.495 -28.485
3218 3 -17.4075 -11.0775 -26.9025
3219 3 -15.825 -9.495 -25.32
3220 3 -17.4075 -11.0775 -23.7375
3221 1 -15.825 -9.495 -22.155
3222 1 -17.4075 -11.0775 -20.5725
3223 2 -15.825 -9.495 -18.99
3224 3 -17.4075 -11.0775 -17.4075
3225 1 -15.825 -9.495 -15.825
3226 2 -17.4075 -11.0775 -14.2425
3227 2 -15.825 -9.495 -9.495
3228 1 -17.4075 -11.0775 -7.9125
3229 2 -15.825 -9.495 -6.33
3230 2 -17.4075 -11.0775 -4.7475
3231 4 -15.825 -9.495 -3.165
3232 3 -17.4075 -11.0775 -1.5825
3233 1 -15.825 -9.495 0.0
3234 1 -17.4075 -11.0775 1.5825
3235 4 -15.825 -9.495 3.165
3236 2 -15.825 -9.495 6.33
3237 4 -15.825 -9.495 9.495
3238 1 -17.4075 -11.0775 11.0775
3239 3 -15.825 -9.495 12.66
3240 1 -17.4075 -11.0775 14.2425
3241 1 -15.825 -9.495 15.825
3242 1 -17.4075 -11.0775 20.5725
3243 4 -15.825 -9.495 22.155
3244 3 -17.4075 -11.0775 23.7375
3245 4 -15.825 -9.495 25.32
3246 4 -17.4075 -11.0775 26.9025
3247 2 -15.825 -9.495 28.485
3248 3 -17.4075 -11.0775 30.0675
3249 2 -15.825 -9.495 31.65
3250 3 -17.4075 -7.9125 -30.0675
3251 4 -15.825 -6.33 -28.485
3252 2 -17.4075 -7.9125 -26.9025
3253 1 -15.825 -6.33 -25.32
3254 2 -17.4075 -7.9125 -23.7375
3255 2 -15.825 -6.33 -22.155
3256 2 -17.4075 -7.9125 -20.5725
3257 1 -15.825 -6.33 -18.99
3258 2 -17.4075 -7.9125 -17.4075
3259 2 -15.825 -6.33 -15.825
3260 4 -17.4075 -7.9125 -14.2425
3261 2 -15.825 -6.33 -12.66
3262 2 -17.4075 -7.9125 -11.0775
3263 4 -15.825 -6.33 -9.495
3264 2 -17.4075 -7.9125 -7.9125
3265 2 -15.825 -6.33 -6.33
3266 1 -17.4075 -7.9125 -4.7475
3267 2 -15.825 -6.33 -3.165
3268 3 -17.4075 -7.9125 -1.5825
3269 4 -15.825 -6.33 0.0
3270 2 -17.4075 -7.9125 1.5825
3271 3 -15.825 -6.33 3.165
3272 1 -17.4075 -7.9125 4.7475
3273 2 -15.825 -6.33 6.33
3274 2 -17.4075 -7.9125 7.9125
3275 3 -15.825 -6.33 9.495
3276 4 -17.4075 -7.9125 11.0775
3277 2 -15.825 -6.33 12.66
3278 3 -17.4075 -7.9125 14.2425
3279 2 -15.825 -6.33 15.825
3280 1 -17.4075 -7.9125 17.4075
3281 3 -15.825 -6.33 18.99
3282 4 -17.4075 -7.9125 20.5725
3283 1 -15.825 -6.33 22.155
3284 1 -17.4075 -7.9125 23.7375
3285 4 -15.825 -6.33 25.32
3286 1 -17.4075 -7.9125 26.9025
3287 2 -15.825 -6.33 28.485
3288 4 -17.4075 -7.9125 30.0675
3289 4 -15.825 -6.33 31.65
3290 2 -17.4075 -4.7475 -26.9025
3291 3 -15.825 -3.165 -25.32
3292 4 -17.4075 -4.7475 -23.7375
3293 3 -17.4075 -4.7475 -20.5725
3294 1 -17.4075 -4.7475 -17.4075
3295 2 -15.825 -3.165 -15.825
3296 3 -17.4075 -4.7475 -14.2425
3297 4 -15.825 -3.165 -12.66
3298 4 -17.4075 -4.7475 -11.0775
3299 1 -15.825 -3.165 -9.495
3300 4 -17.4075 -4.7475 -7.9125
3301 1 -15.825 -3.165 -6.33
3302 1 -17.4075 -4.7475 -4.7475
3303 2 -15.825 -3.165 -3.165
3304 3 -17.4075 -4.7475 -1.5825
3305 1 -15.825 -3.165 0.0
3306 2 -17.4075 -4.7475 1.5825
3307 4 -15.825 -3.165 3.165
3308 3 -17.4075 -4.7475 4.7475
3309 4 -15.825 -3.165 6.33
3310 3 -17.4075 -4.7475 7.9125
3311 4 -15.825 -3.165 9.495
3312 3 -17.4075 -4.7475 11.0775
3313 1 -15.825 -3.165 12.66
3314 3 -17.4075 -4.7475 14.2425
3315 1 -15.825 -3.165 15.825
3316 1 -17.4075 -4.7475 17.4075
3317 2 -15.825 -3.165 18.99
3318 2 -17.4075 -4.7475 20.5725
3319 3 -15.825 -3.165 22.155
3320 3 -17.4075 -4.7475 23.7375
3321 2 -15.825 -3.165 25.32
3322 3 -17.4075 -4.7475 26.9025
3323 3 -15.825 -3.165 28.485
3324 3 -17.4075 -4.7475 30.0675
3325 1 -15.825 -3.165 31.65
3326 3 -17.4075 -1.5825 -30.0675
3327 4 -15.825 0.0 -28.485
3328 4 -15.825 0.0 -25.32
3329 3 -17.4075 -1.5825 -23.7375
3330 4 -15.825 0.0 -22.155
3331 4 -17.4075 -1.5825 -20.5725
3332 1 -15.825 0.0 -18.99
3333 3 -17.4075 -1.5825 -17.4075
3334 2 -15.825 0.0 -15.825
3335 4 -17.4075 -1.5825 -14.2425
3336 1 -15.825 0.0 -12.66
3337 4 -17.4075 -1.5825 -11.0775
3338 2 -15.825 0.0 -9.495
3339 3 -17.4075 -1.5825 -7.9125
3340 2 -15.825 0.0 -6.33
3341 3 -17.4075 -1.5825 -4.7475
3342 4 -15.825 0.0 -3.165
3343 4 -17.4075 -1.5825 -1.5825
3344 2 -15.825 0.0 0.0
3345 4 -17.4075 -1.5825 1.5825
3346 2 -15.825 0.0 3.165
3347 2 -17.4075 -1.5825 4.7475
3348 3 -15.825 0.0 6.33
3349 2 -17.4075 -1.5825 7.9125
3350 3 -15.825 0.0 9.495
3351 4 -17.4075 -1.5825 11.0775
3352 1 -15.825 0.0 12.66
3353 1 -17.4075 -1.5825 14.2425
3354 4 -15.825 0.0 15.825
3355 2 -17.4075 -1.5825 17.4075
3356 4 -15.825 0.0 18.99
3357 4 -17.4075 -1.5825 20.5725
3358 1 -15.825 0.0 22.155
3359 3 -17.4075 -1.5825 23.7375
3360 1 -15.825 0.0 25.32
3361 2 -17.4075 -1.5825 26.9025
3362 3 -15.825 0.0 28.485
3363 2 -17.4075 -1.5825 30.0675
3364 1 -15.825 0.0 31.65
3365 4 -17.4075 1.5825 -30.0675
3366 2 -15.825 3.165 -28.485
3367 3 -17.4075 1.5825 -26.9025
3368 1 -15.825 3.165 -25.32
3369 3 -17.4075 1.5825 -23.7375
3370 2 -15.825 3.165 -22.155
3371 4 -17.4075 1.5825 -20.5725
3372 3 -15.825 3.165 -18.99
3373 1 -17.4075 1.5825 -17.4075
3374 4 -15.825 3.165 -15.825
3375 3 -17.4075 1.5825 -14.2425
3376 3 -15.825 3.165 -12.66
3377 2 -17.4075 1.5825 -11.0775
3378 3 -15.825 3.165 -9.495
3379 2 -17.4075 1.5825 -7.9125
3380 4 -15.825 3.165 -6.33
3381 3 -17.4075 1.5825 -4.7475
3382 3 -15.825 3.165 -3.165
3383 3 -17.4075 1.5825 -1.5825
3384 4 -15.825 3.165 0.0
3385 2 -15.825 3.165 3.165
3386 1 -17.4075 1.5825 4.7475
3387 2 -15.825 3.165 6.33
3388 1 -17.4075 1.5825 7.9125
3389 3 -15.825 3.165 9.495
3390 2 -17.4075 1.5825 11.0775
3391 2 -15.825 3.165 12.66
3392 2 -17.4075 1.5825 14.2425
3393 2 -15.825 3.165 15.825
3394 3 -17.4075 1.5825 17.4075
3395 1 -17.4075 1.5825 20.5725
3396 4 -15.825 3.165 22.155
3397 1 -17.4075 1.5825 23.7375
3398 3 -15.825 3.165 25.32
3399 2 -17.4075 1.5825 26.9025
3400 3 -15.825 3.165 28.485
3401 2 -17.4075 1.5825 30.0675
3402 1 -15.825 3.165 31.65
3403 3 -17.4075 4.7475 -30.0675
3404 2 -15.825 6.33 -28.485
3405 1 -17.4075 4.7475 -26.9025
3406 2 -15.825 6.33 -25.32
3407 1 -17.4075 4.7475 -23.7375
3408 2 -15.825 6.33 -22.155
3409 4 -17.4075 4.7475 -20.5725
3410 2 -15.825 6.33 -18.99
3411 4 -17.4075 4.7475 -17.4075
3412 4 -15.825 6.33 -15.825
3413 3 -17.4075 4.7475 -14.2425
3414 1 -15.825 6.33 -12.66
3415 3 -17.4075 4.7475 -11.0775
3416 1 -15.825 6.33 -9.495
3417 2 -17.4075 4.7475 -7.9125
3418 2 -15.825 6.33 -6.33
3419 4 -17.4075 4.7475 -4.7475
3420 1 -17.4075 4.7475 -1.5825
3421 3 -15.825 6.33 0.0
3422 2 -17.4075 4.7475 1.5825
3423 3 -15.825 6.33 3.165
3424 3 -17.4075 4.7475 4.7475
3425 2 -15.825 6.33 6.33
3426 1 -17.4075 4.7475 7.9125
3427 3 -15.825 6.33 9.495
3428 3 -17.4075 4.7475 11.0775
3429 2 -15.825 6.33 12.66
3430 2 -17.4075 4.7475 14.2425
3431 4 -15.825 6.33 15.825
3432 2 -17.4075 4.7475 17.4075
3433 1 -15.825 6.33 18.99
3434 4 -17.4075 4.7475 23.7375
3435 3 -15.825 6.33 25.32
3436 1 -15.825 6.33 28.485
3437 3 -17.4075 4.7475 30.0675
3438 2 -17.4075 7.9125 -30.0675
3439 2 -15.825 9.495 -28.485
3440 2 -17.4075 7.9125 -26.9025
3441 1 -15.825 9.495 -25.32
3442 2 -17.4075 7.9125 -23.7375
3443 4 -15.825 9.495 -22.155
3444 1 -17.4075 7.9125 -20.5725
3445 3 -15.825 9.495 -18.99
3446 2 -17.4075 7.9125 -17.4075
3447 3 -15.825 9.495 -15.825
3448 3 -17.4075 7.9125 -14.2425
3449 1 -15.825 9.495 -12.66
3450 3 -17.4075 7.9125 -11.0775
3451 3 -15.825 9.495 -9.495
3452 3 -17.4075 7.9125 -7.9125
3453 1 -15.825 9.495 -6.33
3454 4 -17.4075 7.9125 -4.7475
3455 4 -15.825 9.495 -3.165
3456 4 -17.4075 7.9125 -1.5825
3457 4 -15.825 9.495 0.0
3458 2 -17.4075 7.9125 1.5825
3459 2 -15.825 9.495 3.165
3460 4 -17.4075 7.9125 4.7475
3461 3 -15.825 9.495 6.33
3462 1 -17.4075 7.9125 7.9125
3463 4 -15.825 9.495 9.495
3464 3 -17.4075 7.9125 11.0775
3465 3 -15.825 9.495 12.66
3466 1 -17.4075 7.9125 14.2425
3467 3 -15.825 9.495 15.825
3468 1 -17.4075 7.9125 17.4075
3469 2 -15.825 9.495 18.99
3470 1 -17.4075 7.9125 20.5725
3471 3 -15.825 9.495 22.155
3472 2 -17.4075 7.9125 23.7375
3473 4 -15.825 9.495 25.32
3474 3 -17.4075 7.9125 26.9025
3475 2 -15.825 9.495 28.485
3476 4 -17.4075 7.9125 30.0675
3477 2 -15.825 9.495 31.65
3478 3 -17.4075 11.0775 -30.0675
3479 3 -15.825 12.66 -28.485
3480 3 -17.4075 11.0775 -26.9025
3481 4 -15.825 12.66 -25.32
3482 2 -17.4075 11.0775 -23.7375
3483 1 -15.825 12.66 -22.155
3484 2 -17.4075 11.0775 -20.5725
3485 3 -15.825 12.66 -18.99
3486 4 -17.4075 11.0775 -17.4075
3487 4 -15.825 12.66 -15.825
3488 4 -17.4075 11.0775 -14.2425
3489 1 -15.825 12.66 -12.66
3490 1 -17.4075 11.0775 -11.0775
3491 1 -17.4075 11.0775 -7.9125
3492 4 -15.825 12.66 -6.33
3493 1 -17.4075 11.0775 -4.7475
3494 1 -17.4075 11.0775 -1.5825
3495 2 -17.4075 11.0775 1.5825
3496 1 -15.825 12.66 3.165
3497 2 -17.4075 11.0775 4.7475
3498 3 -15.825 12.66 6.33
3499 1 -17.4075 11.0775 7.9125
3500 2 -15.825 12.66 9.495
3501 2 -17.4075 11.0775 11.0775
3502 1 -15.825 12.66 12.66
3503 2 -17.4075 11.0775 14.2425
3504 1 -15.825 12.66 15.825
3505 4 -17.4075 11.0775 17.4075
3506 4 -15.825 12.66 18.99
3507 3 -17.4075 11.0775 20.5725
3508 4 -15.825 12.66 22.155
3509 2 -17.4075 11.0775 23.7375
3510 2 -15.825 12.66 25.32
3511 2 -17.4075 11.0775 26.9025
3512 1 -15.825 12.66 28.485
3513 1 -17.4075 11.0775 30.0675
3514 1 -15.825 12.66 31.65
3515 2 -17.4075 14.2425 -30.0675
3516 1 -15.825 15.825 -28.485
3517 1 -17.4075 14.2425 -26.9025
3518 2 -15.825 15.825 -25.32
3519 2 -17.4075 14.2425 -23.7375
3520 3 -15.825 15.825 -22.155
3521 2 -17.4075 14.2425 -20.5725
3522 1 -15.825 15.825 -18.99
3523 2 -17.4075 14.2425 -17.4075
3524 1 -15.825 15.825 -15.825
3525 4 -17.4075 14.2425 -14.2425
3526 2 -15.825 15.825 -12.66
3527 2 -15.825 15.825 -9.495
3528 1 -17.4075 14.2425 -7.9125
3529 4 -15.825 15.825 -6.33
3530 4 -17.4075 14.2425 -4.7475
3531 2 -15.825 15.825 -3.165
3532 2 -17.4075 14.2425 -1.5825
3533 2 -15.825 15.825 0.0
3534 3 -17.4075 14.2425 1.5825
3535 3 -15.825 15.825 3.165
3536 1 -17.4075 14.2425 4.7475
3537 1 -15.825 15.825 6.33
3538 3 -17.4075 14.2425 7.9125
3539 3 -17.4075 14.2425 11.0775
3540 3 -15.825 15.825 12.66
3541 2 -17.4075 14.2425 14.2425
3542 3 -15.825 15.825 15.825
3543 2 -17.4075 14.2425 17.4075
3544 1 -15.825 15.825 18.99
3545 4 -17.4075 14.2425 20.5725
3546 2 -15.825 15.825 22.155
3547 3 -17.4075 14.2425 23.7375
3548 3 -15.825 15.825 25.32
3549 1 -17.4075 14.2425 26.9025
3550 2 -15.825 15.825 28.485
3551 1 -17.4075 14.2425 30.0675
3552 3 -15.825 15.825 31.65
3553 3 -17.4075 17.4075 -30.0675
3554 1 -15.825 18.99 -28.485
3555 4 -17.4075 17.4075 -26.9025
3556 2 -15.825 18.99 -25.32
3557 1 -17.4075 17.4075 -23.7375
3558 3 -15.825 18.99 -22.155
3559 2 -17.4075 17.4075 -20.5725
3560 2 -15.825 18.99 -18.99
3561 1 -17.4075 17.4075 -17.4075
3562 1 -15.825 18.99 -15.825
3563 4 -17.4075 17.4075 -14.2425
3564 3 -15.825 18.99 -12.66
3565 3 -17.4075 17.4075 -11.0775
3566 4 -15.825 18.99 -9.495
3567 3 -17.4075 17.4075 -7.9125
3568 3 -15.825 18.99 -6.33
3569 1 -17.4075 17.4075 -4.7475
3570 3 -15.825 18.99 -3.165
3571 3 -17.4075 17.4075 -1.5825
3572 2 -15.825 18.99 0.0
3573 1 -17.4075 17.4075 1.5825
3574 3 -15.825 18.99 3.165
3575 1 -17.4075 17.4075 4.7475
3576 3 -15.825 18.99 6.33
3577 4 -17.4075 17.4075 7.9125
3578 4 -15.825 18.99 9.495
3579 1 -17.4075 17.4075 11.0775
3580 2 -15.825 18.99 12.66
3581 1 -17.4075 17.4075 14.2425
3582 2 -15.825 18.99 15.825
3583 2 -17.4075 17.4075 17.4075
3584 1 -15.825 18.99 18.99
3585 4 -17.4075 17.4075 20.5725
3586 3 -15.825 18.99 22.155
3587 2 -17.4075 17.4075 23.7375
3588 1 -15.825 18.99 25.32
3589 1 -17.4075 17.4075 26.9025
3590 2 -17.4075 17.4075 30.0675
3591 2 -15.825 18.99 31.65
3592 2 -17.4075 20.5725 -30.0675
3593 4 -15.825 22.155 -28.485
3594 1 -17.4075 20.5725 -26.9025
3595 3 -15.825 22.155 -25.32
3596 4 -17.4075 20.5725 -23.7375
3597 2 -15.825 22.155 -22.155
3598 3 -17.4075 20.5725 -20.5725
3599 4 -17.4075 20.5725 -17.4075
3600 1 -15.825 22.155 -15.825
3601 3 -17.4075 20.5725 -14.2425
3602 1 -15.825 22.155 -12.66
3603 3 -15.825 22.155 -9.495
3604 2 -17.4075 20.5725 -7.9125
3605 1 -15.825 22.155 -6.33
3606 4 -17.4075 20.5725 -4.7475
3607 4 -15.825 22.155 -3.165
3608 2 -17.4075 20.5725 -1.5825
3609 1 -15.825 22.155 0.0
3610 4 -17.4075 20.5725 1.5825
3611 2 -15.825 22.155 3.165
3612 3 -17.4075 20.5725 4.7475
3613 1 -15.825 22.155 6.33
3614 2 -17.4075 20.5725 7.9125
3615 2 -15.825 22.155 9.495
3616 1 -17.4075 20.5725 11.0775
3617 3 -15.825 22.155 12.66
3618 2 -17.4075 20.5725 14.2425
3619 2 -17.4075 20.5725 17.4075
3620 4 -17.4075 20.5725 20.5725
3621 4 -15.825 22.155 22.155
3622 3 -17.4075 20.5725 23.7375
3623 4 -15.825 22.155 25.32
3624 3 -17.4075 20.5725 26.9025
3625 2 -15.825 22.155 28.485
3626 3 -17.4075 20.5725 30.0675
3627 1 -15.825 22.155 31.65
3628 1 -17.4075 23.7375 -30.0675
3629 2 -15.825 25.32 -28.485
3630 2 -17.4075 23.7375 -26.9025
3631 2 -15.825 25.32 -25.32
3632 4 -17.4075 23.7375 -23.7375
3633 3 -15.825 25.32 -22.155
3634 2 -17.4075 23.7375 -20.5725
3635 3 -15.825 25.32 -18.99
3636 3 -17.4075 23.7375 -17.4075
3637 3 -15.825 25.32 -15.825
3638 1 -17.4075 23.7375 -14.2425
3639 4 -15.825 25.32 -12.66
3640 2 -17.4075 23.7375 -11.0775
3641 2 -17.4075 23.7375 -7.9125
3642 2 -15.825 25.32 -6.33
3643 3 -17.4075 23.7375 -4.7475
3644 1 -15.825 25.32 -3.165
3645 1 -17.4075 23.7375 -1.5825
3646 4 -15.825 25.32 0.0
3647 2 -17.4075 23.7375 1.5825
3648 2 -15.825 25.32 3.165
3649 2 -17.4075 23.7375 4.7475
3650 1 -15.825 25.32 6.33
3651 2 -17.4075 23.7375 7.9125
3652 1 -15.825 25.32 9.495
3653 3 -17.4075 23.7375 11.0775
3654 1 -15.825 25.32 12.66
3655 4 -17.4075 23.7375 14.2425
3656 2 -15.825 25.32 15.825
3657 2 -17.4075 23.7375 17.4075
3658 2 -15.825 25.32 18.99
3659 4 -17.4075 23.7375 20.5725
3660 3 -17.4075 23.7375 23.7375
3661 4 -15.825 25.32 25.32
3662 2 -17.4075 23.7375 26.9025
3663 1 -15.825 25.32 28.485
3664 2 -17.4075 23.7375 30.0675
3665 1 -17.4075 26.9025 -30.0675
3666 2 -15.825 28.485 -28.485
3667 2 -17.4075 26.9025 -26.9025
3668 1 -15.825 28.485 -25.32
3669 2 -17.4075 26.9025 -23.7375
3670 4 -15.825 28.485 -22.155
3671 3 -17.4075 26.9025 -20.5725
3672 3 -15.825 28.485 -18.99
3673 4 -17.4075 26.9025 -17.4075
3674 2 -15.825 28.485 -15.825
3675 3 -17.4075 26.9025 -14.2425
3676 4 -15.825 28.485 -12.66
3677 1 -17.4075 26.9025 -11.0775
3678 2 -15.825 28.485 -9.495
3679 2 -17.4075 26.9025 -7.9125
3680 1 -15.825 28.485 -6.33
3681 3 -17.4075 26.9025 -4.7475
3682 4 -15.825 28.485 -3.165
3683 1 -17.4075 26.9025 -1.5825
3684 2 -15.825 28.485 0.0
3685 3 -17.4075 26.9025 1.5825
3686 1 -15.825 28.485 3.165
3687 3 -15.825 28.485 6.33
3688 1 -17.4075 26.9025 7.9125
3689 3 -15.825 28.485 9.495
3690 4 -17.4075 26.9025 11.0775
3691 1 -15.825 28.485 12.66
3692 1 -17.4075 26.9025 14.2425
3693 3 -17.4075 26.9025 17.4075
3694 4 -15.825 28.485 18.99
3695 3 -17.4075 26.9025 20.5725
3696 1 -15.825 28.485 22.155
3697 1 -17.4075 26.9025 23.7375
3698 4 -15.825 28.485 25.32
3699 4 -15.825 28.485 28.485
3700 4 -17.4075 26.9025 30.0675
3701 2 -15.825 28.485 31.65
3702 2 -17.4075 30.0675 -30.0675
3703 4 -15.825 31.65 -28.485
3704 2 -17.4075 30.0675 -26.9025
3705 3 -15.825 31.65 -25.32
3706 4 -17.4075 30.0675 -23.7375
3707 3 -15.825 31.65 -22.155
3708 1 -15.825 31.65 -18.99
3709 1 -17.4075 30.0675 -17.4075
3710 4 -15.825 31.65 -15.825
3711 1 -17.4075 30.0675 -14.2425
3712 2 -15.825 31.65 -12.66
3713 1 -17.4075 30.0675 -11.0775
3714 4 -15.825 31.65 -9.495
3715 1 -17.4075 30.0675 -7.9125
3716 1 -15.825 31.65 -6.33
3717 4 -17.4075 30.0675 -4.7475
3718 2 -15.825 31.65 -3.165
3719 3 -17.4075 30.0675 -1.5825
3720 2 -15.825 31.65 0.0
3721 2 -17.4075 30.0675 1.5825
3722 3 -15.825 31.65 3.165
3723 3 -17.4075 30.0675 4.7475
3724 4 -15.825 31.65 6.33
3725 4 -17.4075 30.0675 7.9125
3726 3 -15.825 31.65 9.495
3727 3 -17.4075 30.0675 11.0775
3728 4 -15.825 31.65 12.66
3729 3 -17.4075 30.0675 14.2425
3730 4 -15.825 31.65 15.825
3731 4 -15.825 31.65 18.99
3732 1 -17.4075 30.0675 20.5725
3733 3 -15.825 31.65 22.155
3734 2 -17.4075 30.0675 23.7375
3735 4 -15.825 31.65 25.32
3736 3 -17.4075 30.0675 26.9025
3737 2 -15.825 31.65 28.485
3738 3 -17.4075 30.0675 30.0675
3739 1 -15.825 31.65 31.65
3740 2 -14.2425 -30.0675 -30.0675
3741 2 -14.2425 -30.0675 -26.9025
3742 1 -12.66 -28.485 -25.32
3743 4 -14.2425 -30.0675 -23.7375
3744 4 -12.66 -28.485 -22.155
3745 2 -14.2425 -30.0675 -20.5725
3746 2 -12.66 -28.485 -18.99
3747 4 -14.2425 -30.0675 -17.4075
3748 2 -12.66 -28.485 -15.825
3749 3 -14.2425 -30.0675 -14.2425
3750 4 -12.66 -28.485 -12.66
3751 4 -14.2425 -30.0675 -11.0775
3752 2 -12.66 -28.485 -9.495
3753 1 -14.2425 -30.0675 -7.9125
3754 4 -12.66 -28.485 -6.33
3755 3 -14.2425 -30.0675 -4.7475
3756 3 -12.66 -28.485 -3.165
3757 2 -14.2425 -30.0675 -1.5825
3758 4 -12.66 -28.485 0.0
3759 3 -14.2425 -30.0675 1.5825
3760 3 -12.66 -28.485 3.165
3761 3 -14.2425 -30.0675 4.7475
3762 1 -14.2425 -30.0675 7.9125
3763 2 -12.66 -28.485 9.495
3764 1 -14.2425 -30.0675 11.0775
3765 3 -12.66 -28.485 12.66
3766 1 -14.2425 -30.0675 14.2425
3767 4 -12.66 -28.485 15.825
3768 2 -14.2425 -30.0675 17.4075
3769 1 -12.66 -28.485 18.99
3770 2 -14.2425 -30.0675 20.5725
3771 4 -12.66 -28.485 22.155
3772 4 -14.2425 -30.0675 23.7375
3773 2 -14.2425 -30.0675 26.9025
3774 1 -12.66 -28.485 28.485
3775 2 -14.2425 -30.0675 30.0675
3776 4 -12.66 -28.485 31.65
3777 3 -14.2425 -26.9025 -30.0675
3778 4 -12.66 -25.32 -28.485
3779 1 -14.2425 -26.9025 -26.9025
3780 4 -12.66 -25.32 -25.32
3781 1 -14.2425 -26.9025 -23.7375
3782 4 -12.66 -25.32 -22.155
3783 4 -14.2425 -26.9025 -20.5725
3784 2 -12.66 -25.32 -18.99
3785 1 -14.2425 -26.9025 -17.4075
3786 2 -12.66 -25.32 -15.825
3787 1 -14.2425 -26.9025 -14.2425
3788 1 -12.66 -25.32 -12.66
3789 3 -14.2425 -26.9025 -11.0775
3790 2 -12.66 -25.32 -9.495
3791 2 -14.2425 -26.9025 -7.9125
3792 2 -12.66 -25.32 -6.33
3793 2 -14.2425 -26.9025 -4.7475
3794 2 -12.66 -25.32 -3.165
3795 3 -14.2425 -26.9025 -1.5825
3796 4 -12.66 -25.32 0.0
3797 4 -14.2425 -26.9025 1.5825
3798 1 -12.66 -25.32 3.165
3799 1 -14.2425 -26.9025 4.7475
3800 1 -12.66 -25.32 6.33
3801 1 -14.2425 -26.9025 7.9125
3802 3 -12.66 -25.32 9.495
3803 3 -12.66 -25.32 12.66
3804 3 -14.2425 -26.9025 14.2425
3805 2 -12.66 -25.32 15.825
3806 4 -14.2425 -26.9025 17.4075
3807 3 -12.66 -25.32 18.99
3808 2 -14.2425 -26.9025 20.5725
3809 4 -12.66 -25.32 22.155
3810 1 -14.2425 -26.9025 23.7375
3811 3 -12.66 -25.32 25.32
3812 3 -14.2425 -26.9025 26.9025
3813 2 -12.66 -25.32 28.485
3814 2 -14.2425 -26.9025 30.0675
3815 2 -12.66 -25.32 31.65
3816 1 -14.2425 -23.7375 -30.0675
3817 4 -12.66 -22.155 -28.485
3818 3 -14.2425 -23.7375 -26.9025
3819 3 -12.66 -22.155 -25.32
3820 3 -12.66 -22.155 -22.155
3821 4 -14.2425 -23.7375 -20.5725
3822 1 -12.66 -22.155 -18.99
3823 2 -14.2425 -23.7375 -17.4075
3824 3 -12.66 -22.155 -15.825
3825 3 -14.2425 -23.7375 -14.2425
3826 3 -12.66 -22.155 -12.66
3827 1 -14.2425 -23.7375 -11.0775
3828 4 -12.66 -22.155 -9.495
3829 3 -14.2425 -23.7375 -7.9125
3830 3 -12.66 -22.155 -6.33
3831 2 -14.2425 -23.7375 -4.7475
3832 4 -12.66 -22.155 -3.165
3833 4 -14.2425 -23.7375 -1.5825
3834 2 -12.66 -22.155 0.0
3835 2 -14.2425 -23.7375 1.5825
3836 4 -12.66 -22.155 3.165
3837 3 -14.2425 -23.7375 4.7475
3838 1 -12.66 -22.155 6.33
3839 2 -14.2425 -23.7375 7.9125
3840 2 -12.66 -22.155 9.495
3841 2 -14.2425 -23.7375 11.0775
3842 4 -12.66 -22.155 12.66
3843 4 -14.2425 -23.7375 14.2425
3844 1 -12.66 -22.155 15.825
3845 2 -14.2425 -23.7375 17.4075
3846 4 -12.66 -22.155 18.99
3847 4 -14.2425 -23.7375 20.5725
3848 3 -12.66 -22.155 22.155
3849 4 -14.2425 -23.7375 23.7375
3850 2 -12.66 -22.155 25.32
3851 3 -14.2425 -23.7375 26.9025
3852 2 -14.2425 -23.7375 30.0675
3853 2 -12.66 -22.155 31.65
3854 3 -14.2425 -20.5725 -30.0675
3855 1 -12.66 -18.99 -28.485
3856 2 -14.2425 -20.5725 -26.9025
3857 4 -12.66 -18.99 -25.32
3858 2 -14.2425 -20.5725 -23.7375
3859 1 -12.66 -18.99 -22.155
3860 1 -14.2425 -20.5725 -20.5725
3861 1 -12.66 -18.99 -18.99
3862 2 -14.2425 -20.5725 -17.4075
3863 2 -12.66 -18.99 -15.825
3864 4 -14.2425 -20.5725 -14.2425
3865 1 -12.66 -18.99 -12.66
3866 4 -14.2425 -20.5725 -11.0775
3867 4 -12.66 -18.99 -9.495
3868 3 -14.2425 -20.5725 -7.9125
3869 3 -12.66 -18.99 -6.33
3870 2 -14.2425 -20.5725 -4.7475
3871 1 -12.66 -18.99 -3.165
3872 1 -14.2425 -20.5725 -1.5825
3873 4 -12.66 -18.99 0.0
3874 4 -14.2425 -20.5725 1.5825
3875 1 -12.66 -18.99 3.165
3876 2 -14.2425 -20.5725 4.7475
3877 2 -12.66 -18.99 6.33
3878 4 -14.2425 -20.5725 7.9125
3879 1 -12.66 -18.99 9.495
3880 2 -14.2425 -20.5725 11.0775
3881 4 -12.66 -18.99 12.66
3882 2 -14.2425 -20.5725 14.2425
3883 3 -12.66 -18.99 15.825
3884 2 -14.2425 -20.5725 17.4075
3885 2 -14.2425 -20.5725 20.5725
3886 3 -12.66 -18.99 22.155
3887 2 -14.2425 -20.5725 23.7375
3888 4 -12.66 -18.99 25.32
3889 4 -14.2425 -20.5725 26.9025
3890 1 -12.66 -18.99 28.485
3891 4 -14.2425 -20.5725 30.0675
3892 2 -12.66 -18.99 31.65
3893 4 -14.2425 -17.4075 -30.0675
3894 3 -12.66 -15.825 -28.485
3895 3 -14.2425 -17.4075 -26.9025
3896 2 -14.2425 -17.4075 -23.7375
3897 1 -12.66 -15.825 -22.155
3898 1 -14.2425 -17.4075 -20.5725
3899 1 -12.66 -15.825 -18.99
3900 1 -14.2425 -17.4075 -17.4075
3901 2 -12.66 -15.825 -15.825
3902 2 -14.2425 -17.4075 -14.2425
3903 3 -12.66 -15.825 -12.66
3904 3 -14.2425 -17.4075 -11.0775
3905 3 -12.66 -15.825 -9.495
3906 3 -14.2425 -17.4075 -7.9125
3907 2 -12.66 -15.825 -6.33
3908 4 -12.66 -15.825 -3.165
3909 2 -12.66 -15.825 0.0
3910 1 -14.2425 -17.4075 1.5825
3911 3 -12.66 -15.825 3.165
3912 1 -14.2425 -17.4075 4.7475
3913 2 -12.66 -15.825 6.33
3914 3 -14.2425 -17.4075 7.9125
3915 1 -12.66 -15.825 9.495
3916 4 -14.2425 -17.4075 11.0775
3917 2 -12.66 -15.825 12.66
3918 4 -14.2425 -17.4075 14.2425
3919 3 -12.66 -15.825 15.825
3920 3 -14.2425 -17.4075 17.4075
3921 1 -12.66 -15.825 18.99
3922 2 -14.2425 -17.4075 20.5725
3923 4 -12.66 -15.825 22.155
3924 1 -14.2425 -17.4075 23.7375
3925 4 -12.66 -15.825 25.32
3926 4 -14.2425 -17.4075 26.9025
3927 4 -12.66 -15.825 28.485
3928 3 -14.2425 -17.4075 30.0675
3929 4 -12.66 -15.825 31.65
3930 1 -14.2425 -14.2425 -30.0675
3931 4 -12.66 -12.66 -28.485
3932 3 -14.2425 -14.2425 -26.9025
3933 4 -12.66 -12.66 -25.32
3934 1 -14.2425 -14.2425 -23.7375
3935 2 -12.66 -12.66 -22.155
3936 3 -14.2425 -14.2425 -20.5725
3937 4 -12.66 -12.66 -18.99
3938 2 -14.2425 -14.2425 -17.4075
3939 3 -12.66 -12.66 -15.825
3940 4 -14.2425 -14.2425 -14.2425
3941 1 -12.66 -12.66 -12.66
3942 3 -14.2425 -14.2425 -11.0775
3943 3 -12.66 -12.66 -9.495
3944 4 -14.2425 -14.2425 -7.9125
3945 4 -12.66 -12.66 -6.33
3946 3 -14.2425 -14.2425 -4.7475
3947 3 -12.66 -12.66 -3.165
3948 1 -14.2425 -14.2425 -1.5825
3949 2 -12.66 -12.66 0.0
3950 1 -14.2425 -14.2425 1.5825
3951 3 -12.66 -12.66 3.165
3952 2 -14.2425 -14.2425 4.7475
3953 4 -12.66 -12.66 6.33
3954 2 -14.2425 -14.2425 7.9125
3955 4 -12.66 -12.66 9.495
3956 3 -14.2425 -14.2425 11.0775
3957 2 -12.66 -12.66 12.66
3958 3 -14.2425 -14.2425 14.2425
3959 2 -12.66 -12.66 15.825
3960 3 -12.66 -12.66 18.99
3961 2 -14.2425 -14.2425 20.5725
3962 3 -12.66 -12.66 22.155
3963 2 -14.2425 -14.2425 23.7375
3964 1 -12.66 -12.66 25.32
3965 1 -14.2425 -14.2425 26.9025
3966 2 -12.66 -12.66 28.485
3967 3 -14.2425 -14.2425 30.0675
3968 1 -12.66 -12.66 31.65
3969 1 -14.2425 -11.0775 -30.0675
3970 4 -14.2425 -11.0775 -26.9025
3971 2 -12.66 -9.495 -25.32
3972 4 -12.66 -9.495 -22.155
3973 1 -14.2425 -11.0775 -20.5725
3974 2 -12.66 -9.495 -18.99
3975 2 -14.2425 -11.0775 -17.4075
3976 4 -14.2425 -11.0775 -14.2425
3977 4 -12.66 -9.495 -12.66
3978 3 -14.2425 -11.0775 -11.0775
3979 3 -12.66 -9.495 -9.495
3980 2 -14.2425 -11.0775 -7.9125
3981 2 -12.66 -9.495 -6.33
3982 3 -14.2425 -11.0775 -4.7475
3983 2 -12.66 -9.495 -3.165
3984 4 -14.2425 -11.0775 -1.5825
3985 4 -12.66 -9.495 0.0
3986 3 -14.2425 -11.0775 1.5825
3987 4 -12.66 -9.495 3.165
3988 2 -12.66 -9.495 6.33
3989 3 -14.2425 -11.0775 7.9125
3990 3 -12.66 -9.495 9.495
3991 4 -14.2425 -11.0775 11.0775
3992 4 -12.66 -9.495 12.66
3993 2 -14.2425 -11.0775 14.2425
3994 1 -12.66 -9.495 15.825
3995 1 -14.2425 -11.0775 17.4075
3996 3 -12.66 -9.495 18.99
3997 1 -14.2425 -11.0775 20.5725
3998 2 -12.66 -9.495 22.155
3999 4 -14.2425 -11.0775 23.7375
4000 1 -12.66 -9.495 25.32
4001 3 -14.2425 -11.0775 26.9025
4002 4 -12.66 -9.495 28.485
4003 3 -14.2425 -11.0775 30.0675
4004 2 -12.66 -9.495 31.65
4005 2 -14.2425 -7.9125 -30.0675
4006 3 -12.66 -6.33 -28.485
4007 3 -14.2425 -7.9125 -26.9025
4008 4 -14.2425 -7.9125 -23.7375
4009 1 -12.66 -6.33 -22.155
4010 3 -14.2425 -7.9125 -20.5725
4011 2 -12.66 -6.33 -18.99
4012 4 -14.2425 -7.9125 -17.4075
4013 2 -12.66 -6.33 -15.825
4014 1 -14.2425 -7.9125 -14.2425
4015 2 -12.66 -6.33 -12.66
4016 3 -14.2425 -7.9125 -11.0775
4017 3 -12.66 -6.33 -9.495
4018 3 -14.2425 -7.9125 -7.9125
4019 4 -14.2425 -7.9125 -4.7475
4020 3 -12.66 -6.33 -3.165
4021 2 -14.2425 -7.9125 -1.5825
4022 1 -12.66 -6.33 0.0
4023 2 -14.2425 -7.9125 1.5825
4024 4 -12.66 -6.33 3.165
4025 1 -14.2425 -7.9125 4.7475
4026 1 -12.66 -6.33 6.33
4027 1 -14.2425 -7.9125 7.9125
4028 4 -12.66 -6.33 9.495
4029 3 -14.2425 -7.9125 11.0775
4030 1 -12.66 -6.33 12.66
4031 4 -14.2425 -7.9125 14.2425
4032 3 -12.66 -6.33 15.825
4033 4 -14.2425 -7.9125 17.4075
4034 3 -12.66 -6.33 18.99
4035 2 -12.66 -6.33 22.155
4036 4 -14.2425 -7.9125 23.7375
4037 1 -14.2425 -7.9125 26.9025
4038 3 -12.66 -6.33 28.485
4039 4 -14.2425 -7.9125 30.0675
4040 3 -12.66 -6.33 31.65
4041 1 -14.2425 -4.7475 -30.0675
4042 4 -12.66 -3.165 -28.485
4043 3 -14.2425 -4.7475 -26.9025
4044 1 -12.66 -3.165 -25.32
4045 2 -14.2425 -4.7475 -23.7375
4046 2 -12.66 -3.165 -22.155
4047 2 -14.2425 -4.7475 -20.5725
4048 4 -12.66 -3.165 -18.99
4049 1 -14.2425 -4.7475 -17.4075
4050 3 -12.66 -3.165 -15.825
4051 3 -14.2425 -4.7475 -14.2425
4052 3 -12.66 -3.165 -12.66
4053 1 -14.2425 -4.7475 -11.0775
4054 1 -12.66 -3.165 -9.495
4055 1 -14.2425 -4.7475 -7.9125
4056 4 -12.66 -3.165 -6.33
4057 1 -14.2425 -4.7475 -4.7475
4058 3 -12.66 -3.165 -3.165
4059 1 -14.2425 -4.7475 -1.5825
4060 2 -12.66 -3.165 0.0
4061 3 -14.2425 -4.7475 1.5825
4062 4 -12.66 -3.165 3.165
4063 4 -14.2425 -4.7475 4.7475
4064 4 -12.66 -3.165 6.33
4065 4 -14.2425 -4.7475 7.9125
4066 3 -12.66 -3.165 9.495
4067 2 -14.2425 -4.7475 11.0775
4068 4 -12.66 -3.165 12.66
4069 2 -14.2425 -4.7475 14.2425
4070 3 -12.66 -3.165 15.825
4071 1 -12.66 -3.165 18.99
4072 2 -14.2425 -4.7475 20.5725
4073 2 -12.66 -3.165 22.155
4074 2 -14.2425 -4.7475 23.7375
4075 4 -12.66 -3.165 25.32
4076 3 -14.2425 -4.7475 26.9025
4077 4 -12.66 -3.165 28.485
4078 2 -14.2425 -4.7475 30.0675
4079 3 -12.66 -3.165 31.65
4080 1 -12.66 0.0 -28.485
4081 2 -14.2425 -1.5825 -26.9025
4082 2 -12.66 0.0 -25.32
4083 1 -14.2425 -1.5825 -23.7375
4084 1 -14.2425 -1.5825 -20.5725
4085 4 -14.2425 -1.5825 -17.4075
4086 4 -12.66 0.0 -15.825
4087 3 -14.2425 -1.5825 -14.2425
4088 2 -12.66 0.0 -12.66
4089 4 -14.2425 -1.5825 -11.0775
4090 2 -12.66 0.0 -9.495
4091 3 -14.2425 -1.5825 -7.9125
4092 2 -12.66 0.0 -6.33
4093 1 -14.2425 -1.5825 -4.7475
4094 2 -12.66 0.0 -3.165
4095 3 -14.2425 -1.5825 -1.5825
4096 3 -12.66 0.0 0.0
4097 2 -14.2425 -1.5825 1.5825
4098 4 -12.66 0.0 3.165
4099 1 -14.2425 -1.5825 4.7475
4100 1 -12.66 0.0 6.33
4101 2 -14.2425 -1.5825 7.9125
4102 3 -12.66 0.0 9.495
4103 2 -14.2425 -1.5825 11.0775
4104 2 -12.66 0.0 12.66
4105 1 -14.2425 -1.5825 14.2425
4106 1 -12.66 0.0 15.825
4107 3 -12.66 0.0 18.99
4108 2 -14.2425 -1.5825 20.5725
4109 2 -12.66 0.0 22.155
4110 4 -14.2425 -1.5825 23.7375
4111 1 -12.66 0.0 25.32
4112 3 -14.2425 -1.5825 26.9025
4113 4 -12.66 0.0 28.485
4114 2 -14.2425 -1.5825 30.0675
4115 3 -12.66 0.0 31.65
4116 3 -14.2425 1.5825 -30.0675
4117 1 -12.66 3.165 -28.485
4118 2 -14.2425 1.5825 -26.9025
4119 1 -12.66 3.165 -25.32
4120 2 -14.2425 1.5825 -23.7375
4121 2 -12.66 3.165 -22.155
4122 2 -14.2425 1.5825 -20.5725
4123 4 -12.66 3.165 -18.99
4124 1 -14.2425 1.5825 -17.4075
4125 4 -12.66 3.165 -15.825
4126 3 -14.2425 1.5825 -14.2425
4127 2 -12.66 3.165 -12.66
4128 3 -14.2425 1.5825 -11.0775
4129 2 -12.66 3.165 -9.495
4130 3 -14.2425 1.5825 -7.9125
4131 4 -12.66 3.165 -6.33
4132 2 -14.2425 1.5825 -4.7475
4133 2 -12.66 3.165 -3.165
4134 3 -14.2425 1.5825 -1.5825
4135 2 -12.66 3.165 0.0
4136 1 -14.2425 1.5825 1.5825
4137 3 -12.66 3.165 3.165
4138 4 -14.2425 1.5825 4.7475
4139 4 -12.66 3.165 6.33
4140 2 -14.2425 1.5825 7.9125
4141 1 -12.66 3.165 9.495
4142 1 -14.2425 1.5825 11.0775
4143 4 -12.66 3.165 12.66
4144 3 -14.2425 1.5825 14.2425
4145 3 -12.66 3.165 15.825
4146 1 -14.2425 1.5825 17.4075
4147 3 -12.66 3.165 18.99
4148 2 -14.2425 1.5825 20.5725
4149 1 -12.66 3.165 22.155
4150 1 -14.2425 1.5825 23.7375
4151 3 -12.66 3.165 25.32
4152 4 -14.2425 1.5825 26.9025
4153 3 -12.66 3.165 28.485
4154 4 -14.2425 1.5825 30.0675
4155 1 -12.66 3.165 31.65
4156 2 -14.2425 4.7475 -30.0675
4157 1 -12.66 6.33 -28.485
4158 2 -14.2425 4.7475 -26.9025
4159 4 -12.66 6.33 -25.32
4160 3 -14.2425 4.7475 -23.7375
4161 1 -12.66 6.33 -22.155
4162 1 -14.2425 4.7475 -20.5725
4163 2 -12.66 6.33 -18.99
4164 4 -14.2425 4.7475 -17.4075
4165 2 -12.66 6.33 -15.825
4166 3 -14.2425 4.7475 -14.2425
4167 3 -12.66 6.33 -12.66
4168 3 -14.2425 4.7475 -11.0775
4169 2 -12.66 6.33 -9.495
4170 2 -14.2425 4.7475 -7.9125
4171 3 -12.66 6.33 -6.33
4172 4 -14.2425 4.7475 -4.7475
4173 3 -12.66 6.33 -3.165
4174 3 -14.2425 4.7475 -1.5825
4175 3 -12.66 6.33 0.0
4176 4 -14.2425 4.7475 1.5825
4177 3 -12.66 6.33 3.165
4178 1 -14.2425 4.7475 4.7475
4179 1 -12.66 6.33 6.33
4180 1 -14.2425 4.7475 7.9125
4181 4 -12.66 6.33 9.495
4182 3 -14.2425 4.7475 11.0775
4183 2 -12.66 6.33 12.66
4184 4 -14.2425 4.7475 14.2425
4185 2 -14.2425 4.7475 17.4075
4186 1 -12.66 6.33 18.99
4187 3 -14.2425 4.7475 20.5725
4188 3 -12.66 6.33 22.155
4189 3 -14.2425 4.7475 23.7375
4190 4 -12.66 6.33 25.32
4191 3 -14.2425 4.7475 26.9025
4192 2 -12.66 6.33 28.485
4193 4 -14.2425 4.7475 30.0675
4194 4 -12.66 6.33 31.65
4195 3 -14.2425 7.9125 -30.0675
4196 2 -12.66 9.495 -28.485
4197 1 -14.2425 7.9125 -26.9025
4198 1 -14.2425 7.9125 -23.7375
4199 4 -12.66 9.495 -22.155
4200 2 -14.2425 7.9125 -20.5725
4201 4 -12.66 9.495 -18.99
4202 4 -14.2425 7.9125 -17.4075
4203 2 -12.66 9.495 -15.825
4204 2 -14.2425 7.9125 -14.2425
4205 4 -12.66 9.495 -12.66
4206 3 -14.2425 7.9125 -11.0775
4207 4 -12.66 9.495 -9.495
4208 2 -14.2425 7.9125 -7.9125
4209 2 -12.66 9.495 -6.33
4210 1 -14.2425 7.9125 -4.7475
4211 1 -12.66 9.495 -3.165
4212 4 -14.2425 7.9125 -1.5825
4213 3 -12.66 9.495 0.0
4214 3 -14.2425 7.9125 1.5825
4215 4 -12.66 9.495 3.165
4216 2 -14.2425 7.9125 4.7475
4217 3 -12.66 9.495 6.33
4218 2 -14.2425 7.9125 7.9125
4219 3 -12.66 9.495 9.495
4220 2 -14.2425 7.9125 11.0775
4221 1 -12.66 9.495 12.66
4222 1 -14.2425 7.9125 14.2425
4223 4 -12.66 9.495 15.825
4224 2 -14.2425 7.9125 17.4075
4225 4 -12.66 9.495 18.99
4226 4 -14.2425 7.9125 20.5725
4227 1 -12.66 9.495 22.155
4228 4 -14.2425 7.9125 23.7375
4229 1 -12.66 9.495 25.32
4230 4 -14.2425 7.9125 26.9025
4231 3 -12.66 9.495 28.485
4232 2 -14.2425 7.9125 30.0675
4233 1 -12.66 9.495 31.65
4234 4 -14.2425 11.0775 -30.0675
4235 2 -14.2425 11.0775 -26.9025
4236 3 -12.66 12.66 -25.32
4237 2 -14.2425 11.0775 -23.7375
4238 2 -12.66 12.66 -22.155
4239 2 -14.2425 11.0775 -20.5725
4240 4 -12.66 12.66 -18.99
4241 4 -14.2425 11.0775 -17.4075
4242 3 -12.66 12.66 -15.825
4243 2 -14.2425 11.0775 -14.2425
4244 1 -12.66 12.66 -12.66
4245 4 -14.2425 11.0775 -11.0775
4246 3 -12.66 12.66 -9.495
4247 2 -14.2425 11.0775 -7.9125
4248 1 -14.2425 11.0775 -4.7475
4249 3 -12.66 12.66 -3.165
4250 3 -14.2425 11.0775 -1.5825
4251 3 -12.66 12.66 0.0
4252 3 -14.2425 11.0775 1.5825
4253 2 -12.66 12.66 3.165
4254 1 -14.2425 11.0775 4.7475
4255 1 -12.66 12.66 6.33
4256 4 -14.2425 11.0775 7.9125
4257 3 -12.66 12.66 9.495
4258 2 -14.2425 11.0775 11.0775
4259 2 -14.2425 11.0775 14.2425
4260 1 -12.66 12.66 15.825
4261 4 -14.2425 11.0775 17.4075
4262 2 -12.66 12.66 18.99
4263 2 -14.2425 11.0775 20.5725
4264 3 -12.66 12.66 22.155
4265 3 -14.2425 11.0775 23.7375
4266 3 -12.66 12.66 25.32
4267 1 -14.2425 11.0775 26.9025
4268 3 -12.66 12.66 28.485
4269 4 -14.2425 11.0775 30.0675
4270 1 -12.66 12.66 31.65
4271 1 -14.2425 14.2425 -30.0675
4272 1 -12.66 15.825 -28.485
4273 1 -14.2425 14.2425 -26.9025
4274 3 -12.66 15.825 -25.32
4275 1 -14.2425 14.2425 -23.7375
4276 3 -12.66 15.825 -22.155
4277 1 -14.2425 14.2425 -20.5725
4278 2 -12.66 15.825 -18.99
4279 4 -14.2425 14.2425 -17.4075
4280 2 -12.66 15.825 -15.825
4281 4 -14.2425 14.2425 -14.2425
4282 1 -12.66 15.825 -12.66
4283 3 -14.2425 14.2425 -11.0775
4284 4 -12.66 15.825 -9.495
4285 2 -14.2425 14.2425 -7.9125
4286 1 -12.66 15.825 -6.33
4287 1 -14.2425 14.2425 -4.7475
4288 3 -12.66 15.825 -3.165
4289 4 -14.2425 14.2425 -1.5825
4290 4 -12.66 15.825 0.0
4291 1 -14.2425 14.2425 1.5825
4292 4 -12.66 15.825 3.165
4293 2 -14.2425 14.2425 4.7475
4294 4 -12.66 15.825 6.33
4295 1 -14.2425 14.2425 7.9125
4296 1 -12.66 15.825 9.495
4297 1 -14.2425 14.2425 11.0775
4298 2 -12.66 15.825 12.66
4299 4 -14.2425 14.2425 14.2425
4300 1 -12.66 15.825 15.825
4301 2 -14.2425 14.2425 17.4075
4302 2 -12.66 15.825 18.99
4303 3 -14.2425 14.2425 20.5725
4304 3 -12.66 15.825 22.155
4305 2 -14.2425 14.2425 23.7375
4306 4 -12.66 15.825 25.32
4307 4 -14.2425 14.2425 26.9025
4308 4 -12.66 15.825 28.485
4309 2 -14.2425 14.2425 30.0675
4310 4 -12.66 15.825 31.65
4311 3 -14.2425 17.4075 -30.0675
4312 4 -12.66 18.99 -28.485
4313 1 -14.2425 17.4075 -26.9025
4314 2 -12.66 18.99 -25.32
4315 1 -14.2425 17.4075 -23.7375
4316 2 -12.66 18.99 -22.155
4317 4 -14.2425 17.4075 -20.5725
4318 4 -12.66 18.99 -18.99
4319 4 -14.2425 17.4075 -17.4075
4320 4 -12.66 18.99 -15.825
4321 1 -14.2425 17.4075 -14.2425
4322 2 -12.66 18.99 -12.66
4323 1 -14.2425 17.4075 -11.0775
4324 2 -12.66 18.99 -9.495
4325 3 -14.2425 17.4075 -7.9125
4326 2 -12.66 18.99 -6.33
4327 2 -14.2425 17.4075 -4.7475
4328 4 -12.66 18.99 -3.165
4329 3 -14.2425 17.4075 -1.5825
4330 4 -12.66 18.99 0.0
4331 3 -14.2425 17.4075 4.7475
4332 4 -12.66 18.99 6.33
4333 3 -14.2425 17.4075 7.9125
4334 2 -12.66 18.99 9.495
4335 1 -14.2425 17.4075 11.0775
4336 3 -12.66 18.99 12.66
4337 2 -14.2425 17.4075 14.2425
4338 2 -12.66 18.99 15.825
4339 2 -14.2425 17.4075 17.4075
4340 4 -12.66 18.99 18.99
4341 4 -14.2425 17.4075 20.5725
4342 1 -12.66 18.99 22.155
4343 3 -14.2425 17.4075 23.7375
4344 3 -12.66 18.99 25.32
4345 2 -14.2425 17.4075 26.9025
4346 1 -12.66 18.99 28.485
4347 4 -14.2425 17.4075 30.0675
4348 3 -12.66 18.99 31.65
4349 3 -14.2425 20.5725 -30.0675
4350 1 -12.66 22.155 -28.485
4351 1 -14.2425 20.5725 -26.9025
4352 2 -12.66 22.155 -25.32
4353 4 -14.2425 20.5725 -23.7375
4354 4 -12.66 22.155 -22.155
4355 2 -14.2425 20.5725 -20.5725
4356 4 -12.66 22.155 -18.99
4357 1 -14.2425 20.5725 -17.4075
4358 3 -12.66 22.155 -15.825
4359 2 -14.2425 20.5725 -14.2425
4360 3 -12.66 22.155 -12.66
4361 4 -14.2425 20.5725 -11.0775
4362 2 -12.66 22.155 -9.495
4363 4 -14.2425 20.5725 -7.9125
4364 4 -12.66 22.155 -6.33
4365 1 -14.2425 20.5725 -4.7475
4366 1 -12.66 22.155 -3.165
4367 1 -14.2425 20.5725 -1.5825
4368 3 -12.66 22.155 0.0
4369 4 -14.2425 20.5725 1.5825
4370 4 -12.66 22.155 3.165
4371 1 -14.2425 20.5725 4.7475
4372 3 -12.66 22.155 6.33
4373 4 -14.2425 20.5725 7.9125
4374 3 -14.2425 20.5725 11.0775
4375 1 -12.66 22.155 12.66
4376 1 -14.2425 20.5725 14.2425
4377 3 -12.66 22.155 15.825
4378 4 -14.2425 20.5725 17.4075
4379 2 -12.66 22.155 18.99
4380 2 -14.2425 20.5725 20.5725
4381 1 -12.66 22.155 22.155
4382 2 -14.2425 20.5725 23.7375
4383 2 -12.66 22.155 25.32
4384 3 -14.2425 20.5725 26.9025
4385 4 -12.66 22.155 28.485
4386 3 -14.2425 20.5725 30.0675
4387 3 -12.66 22.155 31.65
4388 3 -14.2425 23.7375 -30.0675
4389 3 -12.66 25.32 -28.485
4390 4 -14.2425 23.7375 -26.9025
4391 1 -12.66 25.32 -25.32
4392 4 -14.2425 23.7375 -23.7375
4393 2 -12.66 25.32 -22.155
4394 2 -12.66 25.32 -18.99
4395 2 -14.2425 23.7375 -17.4075
4396 4 -12.66 25.32 -15.825
4397 2 -14.2425 23.7375 -14.2425
4398 2 -12.66 25.32 -12.66
4399 3 -14.2425 23.7375 -11.0775
4400 1 -12.66 25.32 -9.495
4401 3 -14.2425 23.7375 -7.9125
4402 3 -12.66 25.32 -6.33
4403 2 -14.2425 23.7375 -4.7475
4404 3 -12.66 25.32 -3.165
4405 1 -12.66 25.32 0.0
4406 4 -14.2425 23.7375 1.5825
4407 3 -12.66 25.32 3.165
4408 1 -12.66 25.32 6.33
4409 3 -14.2425 23.7375 7.9125
4410 1 -12.66 25.32 9.495
4411 2 -14.2425 23.7375 11.0775
4412 3 -14.2425 23.7375 17.4075
4413 2 -12.66 25.32 18.99
4414 3 -14.2425 23.7375 20.5725
4415 2 -12.66 25.32 22.155
4416 4 -14.2425 23.7375 23.7375
4417 2 -12.66 25.32 25.32
4418 2 -14.2425 23.7375 26.9025
4419 2 -12.66 25.32 28.485
4420 1 -14.2425 23.7375 30.0675
4421 2 -12.66 25.32 31.65
4422 3 -14.2425 26.9025 -30.0675
4423 2 -12.66 28.485 -28.485
4424 3 -14.2425 26.9025 -26.9025
4425 4 -14.2425 26.9025 -23.7375
4426 2 -12.66 28.485 -22.155
4427 2 -12.66 28.485 -18.99
4428 4 -14.2425 26.9025 -17.4075
4429 1 -12.66 28.485 -15.825
4430 4 -14.2425 26.9025 -14.2425
4431 4 -12.66 28.485 -12.66
4432 2 -14.2425 26.9025 -11.0775
4433 3 -12.66 28.485 -9.495
4434 2 -14.2425 26.9025 -7.9125
4435 1 -12.66 28.485 -6.33
4436 1 -14.2425 26.9025 -4.7475
4437 4 -12.66 28.485 -3.165
4438 3 -14.2425 26.9025 -1.5825
4439 1 -12.66 28.485 0.0
4440 4 -14.2425 26.9025 1.5825
4441 2 -12.66 28.485 3.165
4442 2 -14.2425 26.9025 4.7475
4443 3 -12.66 28.485 6.33
4444 3 -14.2425 26.9025 7.9125
4445 4 -12.66 28.485 9.495
4446 3 -14.2425 26.9025 11.0775
4447 2 -12.66 28.485 12.66
4448 1 -14.2425 26.9025 14.2425
4449 4 -12.66 28.485 15.825
4450 4 -14.2425 26.9025 17.4075
4451 2 -12.66 28.485 18.99
4452 4 -14.2425 26.9025 20.5725
4453 1 -12.66 28.485 22.155
4454 1 -14.2425 26.9025 23.7375
4455 4 -12.66 28.485 25.32
4456 2 -14.2425 26.9025 26.9025
4457 4 -12.66 28.485 28.485
4458 2 -14.2425 26.9025 30.0675
4459 2 -12.66 28.485 31.65
4460 4 -14.2425 30.0675 -30.0675
4461 2 -12.66 31.65 -28.485
4462 3 -14.2425 30.0675 -26.9025
4463 3 -12.66 31.65 -25.32
4464 2 -14.2425 30.0675 -23.7375
4465 3 -12.66 31.65 -22.155
4466 2 -14.2425 30.0675 -20.5725
4467 2 -12.66 31.65 -18.99
4468 1 -14.2425 30.0675 -17.4075
4469 4 -12.66 31.65 -15.825
4470 1 -12.66 31.65 -12.66
4471 1 -14.2425 30.0675 -11.0775
4472 1 -12.66 31.65 -9.495
4473 2 -14.2425 30.0675 -7.9125
4474 4 -12.66 31.65 -6.33
4475 4 -14.2425 30.0675 -4.7475
4476 1 -12.66 31.65 -3.165
4477 2 -14.2425 30.0675 -1.5825
4478 2 -12.66 31.65 0.0
4479 1 -14.2425 30.0675 1.5825
4480 2 -12.66 31.65 3.165
4481 2 -14.2425 30.0675 4.7475
4482 1 -12.66 31.65 6.33
4483 4 -14.2425 30.0675 7.9125
4484 2 -12.66 31.65 9.495
4485 2 -14.2425 30.0675 11.0775
4486 1 -12.66 31.65 12.66
4487 2 -14.2425 30.0675 14.2425
4488 1 -12.66 31.65 15.825
4489 1 -14.2425 30.0675 17.4075
4490 3 -12.66 31.65 18.99
4491 1 -14.2425 30.0675 20.5725
4492 2 -12.66 31.65 22.155
4493 2 -14.2425 30.0675 23.7375
4494 2 -12.66 31.65 25.32
4495 3 -14.2425 30.0675 26.9025
4496 1 -12.66 31.65 28.485
4497 3 -12.66 31.65 31.65
4498 1 -11.0775 -30.0675 -30.0675
4499 4 -9.495 -28.485 -25.32
4500 2 -11.0775 -30.0675 -23.7375
4501 2 -9.495 -28.485 -22.155
4502 1 -11.0775 -30.0675 -20.5725
4503 1 -9.495 -28.485 -18.99
4504 4 -11.0775 -30.0675 -17.4075
4505 1 -9.495 -28.485 -15.825
4506 1 -11.0775 -30.0675 -14.2425
4507 3 -9.495 -28.485 -12.66
4508 1 -11.0775 -30.0675 -11.0775
4509 3 -9.495 -28.485 -9.495
4510 1 -11.0775 -30.0675 -7.9125
4511 4 -9.495 -28.485 -6.33
4512 1 -11.0775 -30.0675 -4.7475
4513 2 -9.495 -28.485 -3.165
4514 1 -11.0775 -30.0675 -1.5825
4515 3 -9.495 -28.485 0.0
4516 1 -11.0775 -30.0675 1.5825
4517 1 -9.495 -28.485 3.165
4518 2 -11.0775 -30.0675 4.7475
4519 3 -9.495 -28.485 6.33
4520 1 -11.0775 -30.0675 7.9125
4521 1 -9.495 -28.485 9.495
4522 4 -9.495 -28.485 12.66
4523 1 -9.495 -28.485 15.825
4524 3 -11.0775 -30.0675 17.4075
4525 1 -9.495 -28.485 25.32
4526 1 -11.0775 -30.0675 26.9025
4527 1 -9.495 -28.485 28.485
4528 4 -11.0775 -30.0675 30.0675
4529 2 -9.495 -28.485 31.65
4530 2 -11.0775 -26.9025 -30.0675
4531 4 -9.495 -25.32 -28.485
4532 4 -9.495 -25.32 -25.32
4533 2 -11.0775 -26.9025 -23.7375
4534 4 -9.495 -25.32 -22.155
4535 2 -11.0775 -26.9025 -20.5725
4536 3 -9.495 -25.32 -18.99
4537 3 -11.0775 -26.9025 -17.4075
4538 1 -9.495 -25.32 -15.825
4539 3 -11.0775 -26.9025 -14.2425
4540 4 -11.0775 -26.9025 -11.0775
4541 2 -9.495 -25.32 -9.495
4542 2 -9.495 -25.32 -6.33
4543 3 -11.0775 -26.9025 -4.7475
4544 3 -9.495 -25.32 -3.165
4545 3 -11.0775 -26.9025 -1.5825
4546 1 -9.495 -25.32 0.0
4547 1 -11.0775 -26.9025 1.5825
4548 2 -9.495 -25.32 3.165
4549 2 -11.0775 -26.9025 4.7475
4550 2 -9.495 -25.32 6.33
4551 4 -11.0775 -26.9025 7.9125
4552 2 -9.495 -25.32 9.495
4553 1 -11.0775 -26.9025 11.0775
4554 4 -9.495 -25.32 12.66
4555 1 -11.0775 -26.9025 14.2425
4556 3 -9.495 -25.32 15.825
4557 2 -11.0775 -26.9025 17.4075
4558 3 -9.495 -25.32 18.99
4559 2 -11.0775 -26.9025 20.5725
4560 1 -11.0775 -26.9025 23.7375
4561 2 -9.495 -25.32 25.32
4562 4 -11.0775 -26.9025 26.9025
4563 2 -9.495 -25.32 28.485
4564 3 -11.0775 -26.9025 30.0675
4565 2 -9.495 -25.32 31.65
4566 3 -11.0775 -23.7375 -30.0675
4567 3 -9.495 -22.155 -28.485
4568 1 -11.0775 -23.7375 -26.9025
4569 4 -9.495 -22.155 -25.32
4570 1 -11.0775 -23.7375 -23.7375
4571 4 -11.0775 -23.7375 -20.5725
4572 4 -9.495 -22.155 -18.99
4573 1 -11.0775 -23.7375 -17.4075
4574 3 -9.495 -22.155 -15.825
4575 2 -11.0775 -23.7375 -14.2425
4576 1 -9.495 -22.155 -12.66
4577 2 -11.0775 -23.7375 -11.0775
4578 1 -9.495 -22.155 -9.495
4579 4 -11.0775 -23.7375 -7.9125
4580 2 -9.495 -22.155 -6.33
4581 4 -11.0775 -23.7375 -4.7475
4582 3 -9.495 -22.155 -3.165
4583 3 -11.0775 -23.7375 -1.5825
4584 4 -9.495 -22.155 0.0
4585 4 -11.0775 -23.7375 1.5825
4586 3 -9.495 -22.155 3.165
4587 2 -11.0775 -23.7375 4.7475
4588 4 -9.495 -22.155 6.33
4589 1 -11.0775 -23.7375 7.9125
4590 1 -9.495 -22.155 9.495
4591 3 -11.0775 -23.7375 11.0775
4592 3 -9.495 -22.155 12.66
4593 1 -11.0775 -23.7375 14.2425
4594 2 -9.495 -22.155 15.825
4595 2 -11.0775 -23.7375 17.4075
4596 2 -9.495 -22.155 18.99
4597 1 -11.0775 -23.7375 20.5725
4598 2 -9.495 -22.155 22.155
4599 3 -11.0775 -23.7375 23.7375
4600 4 -9.495 -22.155 25.32
4601 4 -11.0775 -23.7375 26.9025
4602 2 -9.495 -22.155 28.485
4603 3 -11.0775 -23.7375 30.0675
4604 3 -9.495 -22.155 31.65
4605 2 -11.0775 -20.5725 -30.0675
4606 2 -9.495 -18.99 -28.485
4607 4 -11.0775 -20.5725 -26.9025
4608 1 -9.495 -18.99 -25.32
4609 4 -9.495 -18.99 -22.155
4610 4 -11.0775 -20.5725 -20.5725
4611 4 -9.495 -18.99 -18.99
4612 1 -11.0775 -20.5725 -17.4075
4613 4 -9.495 -18.99 -15.825
4614 4 -11.0775 -20.5725 -14.2425
4615 4 -9.495 -18.99 -12.66
4616 4 -11.0775 -20.5725 -11.0775
4617 3 -9.495 -18.99 -9.495
4618 2 -11.0775 -20.5725 -7.9125
4619 3 -9.495 -18.99 -6.33
4620 3 -11.0775 -20.5725 -4.7475
4621 2 -9.495 -18.99 -3.165
4622 1 -11.0775 -20.5725 -1.5825
4623 2 -9.495 -18.99 0.0
4624 3 -11.0775 -20.5725 1.5825
4625 2 -9.495 -18.99 3.165
4626 3 -11.0775 -20.5725 4.7475
4627 1 -9.495 -18.99 6.33
4628 1 -11.0775 -20.5725 7.9125
4629 2 -9.495 -18.99 9.495
4630 2 -9.495 -18.99 12.66
4631 1 -11.0775 -20.5725 14.2425
4632 1 -9.495 -18.99 15.825
4633 1 -11.0775 -20.5725 17.4075
4634 3 -9.495 -18.99 18.99
4635 3 -11.0775 -20.5725 20.5725
4636 4 -11.0775 -20.5725 23.7375
4637 3 -9.495 -18.99 25.32
4638 1 -11.0775 -20.5725 26.9025
4639 4 -9.495 -18.99 28.485
4640 1 -11.0775 -20.5725 30.0675
4641 1 -9.495 -18.99 31.65
4642 3 -11.0775 -17.4075 -30.0675
4643 4 -9.495 -15.825 -25.32
4644 3 -11.0775 -17.4075 -23.7375
4645 3 -9.495 -15.825 -22.155
4646 4 -11.0775 -17.4075 -20.5725
4647 4 -9.495 -15.825 -18.99
4648 1 -9.495 -15.825 -15.825
4649 3 -11.0775 -17.4075 -14.2425
4650 3 -9.495 -15.825 -12.66
4651 1 -11.0775 -17.4075 -11.0775
4652 1 -9.495 -15.825 -9.495
4653 1 -9.495 -15.825 -6.33
4654 2 -11.0775 -17.4075 -4.7475
4655 2 -9.495 -15.825 -3.165
4656 3 -11.0775 -17.4075 -1.5825
4657 1 -9.495 -15.825 0.0
4658 2 -11.0775 -17.4075 1.5825
4659 4 -9.495 -15.825 6.33
4660 4 -11.0775 -17.4075 7.9125
4661 1 -9.495 -15.825 9.495
4662 1 -9.495 -15.825 12.66
4663 4 -11.0775 -17.4075 14.2425
4664 3 -9.495 -15.825 15.825
4665 3 -11.0775 -17.4075 17.4075
4666 4 -9.495 -15.825 18.99
4667 3 -11.0775 -17.4075 20.5725
4668 1 -9.495 -15.825 22.155
4669 1 -11.0775 -17.4075 23.7375
4670 4 -9.495 -15.825 25.32
4671 2 -11.0775 -17.4075 26.9025
4672 3 -9.495 -15.825 28.485
4673 3 -11.0775 -17.4075 30.0675
4674 4 -9.495 -15.825 31.65
4675 4 -11.0775 -14.2425 -30.0675
4676 1 -11.0775 -14.2425 -26.9025
4677 4 -9.495 -12.66 -25.32
4678 4 -11.0775 -14.2425 -23.7375
4679 1 -9.495 -12.66 -22.155
4680 2 -11.0775 -14.2425 -20.5725
4681 1 -9.495 -12.66 -18.99
4682 2 -9.495 -12.66 -15.825
4683 3 -9.495 -12.66 -12.66
4684 2 -11.0775 -14.2425 -11.0775
4685 4 -9.495 -12.66 -9.495
4686 2 -11.0775 -14.2425 -7.9125
4687 1 -11.0775 -14.2425 -4.7475
4688 3 -9.495 -12.66 -3.165
4689 2 -11.0775 -14.2425 -1.5825
4690 3 -9.495 -12.66 0.0
4691 4 -11.0775 -14.2425 1.5825
4692 3 -9.495 -12.66 3.165
4693 3 -11.0775 -14.2425 4.7475
4694 3 -9.495 -12.66 6.33
4695 3 -11.0775 -14.2425 7.9125
4696 1 -9.495 -12.66 9.495
4697 3 -11.0775 -14.2425 11.0775
4698 2 -9.495 -12.66 12.66
4699 3 -11.0775 -14.2425 14.2425
4700 3 -9.495 -12.66 15.825
4701 2 -11.0775 -14.2425 17.4075
4702 3 -9.495 -12.66 18.99
4703 2 -11.0775 -14.2425 20.5725
4704 1 -9.495 -12.66 22.155
4705 3 -11.0775 -14.2425 23.7375
4706 3 -9.495 -12.66 25.32
4707 1 -11.0775 -14.2425 26.9025
4708 4 -9.495 -12.66 28.485
4709 1 -11.0775 -14.2425 30.0675
4710 4 -9.495 -12.66 31.65
4711 3 -11.0775 -11.0775 -30.0675
4712 4 -9.495 -9.495 -28.485
4713 1 -11.0775 -11.0775 -26.9025
4714 3 -9.495 -9.495 -25.32
4715 3 -11.0775 -11.0775 -23.7375
4716 4 -9.495 -9.495 -22.155
4717 1 -11.0775 -11.0775 -20.5725
4718 4 -9.495 -9.495 -18.99
4719 2 -11.0775 -11.0775 -17.4075
4720 2 -9.495 -9.495 -15.825
4721 2 -11.0775 -11.0775 -14.2425
4722 3 -9.495 -9.495 -12.66
4723 3 -11.0775 -11.0775 -11.0775
4724 3 -9.495 -9.495 -9.495
4725 4 -11.0775 -11.0775 -7.9125
4726 3 -9.495 -9.495 -6.33
4727 4 -11.0775 -11.0775 -4.7475
4728 3 -9.495 -9.495 -3.165
4729 3 -11.0775 -11.0775 -1.5825
4730 3 -9.495 -9.495 0.0
4731 4 -11.0775 -11.0775 1.5825
4732 1 -9.495 -9.495 3.165
4733 3 -9.495 -9.495 6.33
4734 2 -11.0775 -11.0775 7.9125
4735 1 -9.495 -9.495 9.495
4736 4 -11.0775 -11.0775 11.0775
4737 3 -9.495 -9.495 12.66
4738 2 -11.0775 -11.0775 14.2425
4739 1 -9.495 -9.495 15.825
4740 2 -11.0775 -11.0775 17.4075
4741 3 -9.495 -9.495 18.99
4742 1 -11.0775 -11.0775 20.5725
4743 3 -9.495 -9.495 22.155
4744 4 -11.0775 -11.0775 23.7375
4745 1 -9.495 -9.495 25.32
4746 3 -11.0775 -11.0775 26.9025
4747 4 -9.495 -9.495 28.485
4748 4 -11.0775 -11.0775 30.0675
4749 4 -9.495 -9.495 31.65
4750 4 -11.0775 -7.9125 -30.0675
4751 2 -9.495 -6.33 -28.485
4752 2 -11.0775 -7.9125 -26.9025
4753 2 -9.495 -6.33 -25.32
4754 1 -11.0775 -7.9125 -23.7375
4755 3 -9.495 -6.33 -22.155
4756 4 -11.0775 -7.9125 -20.5725
4757 3 -11.0775 -7.9125 -17.4075
4758 1 -9.495 -6.33 -15.825
4759 4 -11.0775 -7.9125 -14.2425
4760 1 -9.495 -6.33 -12.66
4761 3 -9.495 -6.33 -9.495
4762 4 -11.0775 -7.9125 -7.9125
4763 1 -9.495 -6.33 -6.33
4764 4 -11.0775 -7.9125 -4.7475
4765 2 -9.495 -6.33 -3.165
4766 4 -11.0775 -7.9125 -1.5825
4767 1 -9.495 -6.33 0.0
4768 3 -11.0775 -7.9125 1.5825
4769 1 -9.495 -6.33 3.165
4770 2 -11.0775 -7.9125 4.7475
4771 1 -9.495 -6.33 6.33
4772 1 -11.0775 -7.9125 7.9125
4773 4 -9.495 -6.33 9.495
4774 2 -11.0775 -7.9125 11.0775
4775 3 -9.495 -6.33 12.66
4776 4 -11.0775 -7.9125 14.2425
4777 1 -9.495 -6.33 15.825
4778 3 -11.0775 -7.9125 17.4075
4779 2 -9.495 -6.33 18.99
4780 4 -11.0775 -7.9125 20.5725
4781 2 -11.0775 -7.9125 23.7375
4782 3 -9.495 -6.33 25.32
4783 1 -11.0775 -7.9125 26.9025
4784 2 -9.495 -6.33 31.65
4785 3 -11.0775 -4.7475 -30.0675
4786 1 -9.495 -3.165 -28.485
4787 4 -11.0775 -4.7475 -26.9025
4788 4 -9.495 -3.165 -25.32
4789 3 -11.0775 -4.7475 -23.7375
4790 4 -9.495 -3.165 -22.155
4791 2 -11.0775 -4.7475 -20.5725
4792 2 -9.495 -3.165 -18.99
4793 4 -11.0775 -4.7475 -17.4075
4794 1 -9.495 -3.165 -15.825
4795 4 -11.0775 -4.7475 -14.2425
4796 1 -9.495 -3.165 -12.66
4797 1 -11.0775 -4.7475 -11.0775
4798 1 -9.495 -3.165 -9.495
4799 2 -11.0775 -4.7475 -7.9125
4800 2 -9.495 -3.165 -6.33
4801 2 -11.0775 -4.7475 -4.7475
4802 3 -9.495 -3.165 -3.165
4803 4 -11.0775 -4.7475 -1.5825
4804 2 -9.495 -3.165 0.0
4805 4 -11.0775 -4.7475 1.5825
4806 4 -9.495 -3.165 3.165
4807 1 -11.0775 -4.7475 4.7475
4808 4 -9.495 -3.165 6.33
4809 1 -11.0775 -4.7475 7.9125
4810 1 -9.495 -3.165 9.495
4811 4 -11.0775 -4.7475 11.0775
4812 3 -11.0775 -4.7475 14.2425
4813 1 -9.495 -3.165 15.825
4814 4 -9.495 -3.165 18.99
4815 4 -9.495 -3.165 22.155
4816 4 -11.0775 -4.7475 23.7375
4817 2 -9.495 -3.165 25.32
4818 2 -11.0775 -4.7475 26.9025
4819 4 -9.495 -3.165 28.485
4820 4 -11.0775 -4.7475 30.0675
4821 2 -9.495 -3.165 31.65
4822 2 -11.0775 -1.5825 -30.0675
4823 4 -9.495 0.0 -28.485
4824 1 -11.0775 -1.5825 -26.9025
4825 2 -9.495 0.0 -25.32
4826 1 -9.495 0.0 -22.155
4827 3 -11.0775 -1.5825 -20.5725
4828 3 -9.495 0.0 -18.99
4829 2 -9.495 0.0 -15.825
4830 3 -11.0775 -1.5825 -14.2425
4831 2 -9.495 0.0 -12.66
4832 1 -11.0775 -1.5825 -11.0775
4833 3 -9.495 0.0 -9.495
4834 2 -11.0775 -1.5825 -7.9125
4835 3 -9.495 0.0 -6.33
4836 4 -11.0775 -1.5825 -4.7475
4837 3 -9.495 0.0 -3.165
4838 4 -11.0775 -1.5825 -1.5825
4839 3 -9.495 0.0 0.0
4840 1 -11.0775 -1.5825 1.5825
4841 1 -9.495 0.0 3.165
4842 4 -11.0775 -1.5825 4.7475
4843 1 -11.0775 -1.5825 7.9125
4844 3 -9.495 0.0 9.495
4845 4 -11.0775 -1.5825 11.0775
4846 4 -9.495 0.0 12.66
4847 3 -11.0775 -1.5825 14.2425
4848 1 -9.495 0.0 15.825
4849 1 -11.0775 -1.5825 17.4075
4850 1 -9.495 0.0 18.99
4851 3 -11.0775 -1.5825 20.5725
4852 3 -9.495 0.0 22.155
4853 3 -11.0775 -1.5825 23.7375
4854 4 -9.495 0.0 25.32
4855 4 -11.0775 -1.5825 26.9025
4856 3 -9.495 0.0 28.485
4857 3 -11.0775 -1.5825 30.0675
4858 3 -9.495 0.0 31.65
4859 3 -11.0775 1.5825 -30.0675
4860 4 -9.495 3.165 -28.485
4861 4 -9.495 3.165 -25.32
4862 1 -11.0775 1.5825 -23.7375
4863 4 -9.495 3.165 -22.155
4864 1 -11.0775 1.5825 -20.5725
4865 4 -9.495 3.165 -18.99
4866 4 -9.495 3.165 -15.825
4867 3 -9.495 3.165 -12.66
4868 2 -11.0775 1.5825 -11.0775
4869 1 -9.495 3.165 -9.495
4870 3 -11.0775 1.5825 -7.9125
4871 1 -9.495 3.165 -6.33
4872 4 -9.495 3.165 -3.165
4873 1 -11.0775 1.5825 -1.5825
4874 3 -9.495 3.165 0.0
4875 3 -11.0775 1.5825 1.5825
4876 4 -11.0775 1.5825 4.7475
4877 3 -9.495 3.165 6.33
4878 2 -11.0775 1.5825 7.9125
4879 3 -9.495 3.165 9.495
4880 4 -9.495 3.165 12.66
4881 2 -11.0775 1.5825 14.2425
4882 1 -9.495 3.165 15.825
4883 2 -11.0775 1.5825 17.4075
4884 1 -9.495 3.165 18.99
4885 2 -11.0775 1.5825 20.5725
4886 1 -9.495 3.165 22.155
4887 3 -11.0775 1.5825 23.7375
4888 1 -9.495 3.165 25.32
4889 1 -11.0775 1.5825 26.9025
4890 2 -9.495 3.165 28.485
4891 1 -11.0775 1.5825 30.0675
4892 3 -9.495 3.165 31.65
4893 4 -11.0775 4.7475 -30.0675
4894 4 -9.495 6.33 -28.485
4895 2 -9.495 6.33 -25.32
4896 3 -11.0775 4.7475 -23.7375
4897 3 -9.495 6.33 -22.155
4898 4 -11.0775 4.7475 -17.4075
4899 1 -9.495 6.33 -15.825
4900 2 -11.0775 4.7475 -14.2425
4901 4 -9.495 6.33 -12.66
4902 3 -11.0775 4.7475 -11.0775
4903 3 -9.495 6.33 -9.495
4904 3 -11.0775 4.7475 -7.9125
4905 3 -9.495 6.33 -6.33
4906 1 -11.0775 4.7475 -4.7475
4907 4 -9.495 6.33 -3.165
4908 1 -11.0775 4.7475 -1.5825
4909 1 -9.495 6.33 0.0
4910 3 -11.0775 4.7475 1.5825
4911 3 -9.495 6.33 3.165
4912 2 -11.0775 4.7475 4.7475
4913 4 -9.495 6.33 6.33
4914 2 -11.0775 4.7475 7.9125
4915 1 -9.495 6.33 9.495
4916 3 -11.0775 4.7475 11.0775
4917 2 -9.495 6.33 12.66
4918 3 -11.0775 4.7475 14.2425
4919 2 -9.495 6.33 15.825
4920 4 -11.0775 4.7475 17.4075
4921 4 -9.495 6.33 18.99
4922 3 -11.0775 4.7475 20.5725
4923 2 -9.495 6.33 22.155
4924 3 -11.0775 4.7475 23.7375
4925 2 -9.495 6.33 25.32
4926 1 -11.0775 4.7475 26.9025
4927 1 -9.495 6.33 28.485
4928 1 -11.0775 4.7475 30.0675
4929 3 -9.495 6.33 31.65
4930 3 -11.0775 7.9125 -30.0675
4931 1 -9.495 9.495 -28.485
4932 2 -11.0775 7.9125 -26.9025
4933 2 -9.495 9.495 -25.32
4934 1 -9.495 9.495 -22.155
4935 4 -11.0775 7.9125 -20.5725
4936 4 -9.495 9.495 -18.99
4937 1 -11.0775 7.9125 -17.4075
4938 2 -9.495 9.495 -15.825
4939 1 -11.0775 7.9125 -14.2425
4940 4 -9.495 9.495 -12.66
4941 4 -11.0775 7.9125 -11.0775
4942 1 -9.495 9.495 -9.495
4943 2 -11.0775 7.9125 -7.9125
4944 3 -11.0775 7.9125 -4.7475
4945 4 -11.0775 7.9125 -1.5825
4946 4 -9.495 9.495 0.0
4947 2 -11.0775 7.9125 1.5825
4948 1 -9.495 9.495 3.165
4949 3 -11.0775 7.9125 4.7475
4950 2 -9.495 9.495 6.33
4951 1 -11.0775 7.9125 7.9125
4952 2 -11.0775 7.9125 11.0775
4953 3 -9.495 9.495 12.66
4954 2 -11.0775 7.9125 14.2425
4955 3 -9.495 9.495 15.825
4956 1 -9.495 9.495 18.99
4957 4 -11.0775 7.9125 20.5725
4958 1 -9.495 9.495 22.155
4959 3 -11.0775 7.9125 23.7375
4960 3 -9.495 9.495 25.32
4961 2 -11.0775 7.9125 26.9025
4962 1 -9.495 9.495 28.485
4963 4 -11.0775 7.9125 30.0675
4964 3 -9.495 9.495 31.65
4965 1 -11.0775 11.0775 -30.0675
4966 4 -11.0775 11.0775 -26.9025
4967 4 -9.495 12.66 -25.32
4968 2 -11.0775 11.0775 -23.7375
4969 3 -9.495 12.66 -22.155
4970 1 -11.0775 11.0775 -20.5725
4971 2 -9.495 12.66 -18.99
4972 2 -9.495 12.66 -15.825
4973 2 -11.0775 11.0775 -14.2425
4974 3 -11.0775 11.0775 -11.0775
4975 4 -11.0775 11.0775 -7.9125
4976 4 -9.495 12.66 -6.33
4977 3 -11.0775 11.0775 -4.7475
4978 4 -9.495 12.66 -3.165
4979 3 -11.0775 11.0775 -1.5825
4980 3 -9.495 12.66 0.0
4981 1 -11.0775 11.0775 1.5825
4982 1 -9.495 12.66 3.165
4983 3 -11.0775 11.0775 4.7475
4984 3 -9.495 12.66 6.33
4985 1 -11.0775 11.0775 7.9125
4986 1 -9.495 12.66 9.495
4987 3 -11.0775 11.0775 11.0775
4988 3 -9.495 12.66 12.66
4989 4 -11.0775 11.0775 14.2425
4990 2 -9.495 12.66 15.825
4991 1 -11.0775 11.0775 17.4075
4992 4 -9.495 12.66 18.99
4993 1 -11.0775 11.0775 20.5725
4994 3 -9.495 12.66 22.155
4995 3 -11.0775 11.0775 23.7375
4996 4 -9.495 12.66 25.32
4997 4 -11.0775 11.0775 26.9025
4998 1 -9.495 12.66 28.485
4999 2 -11.0775 11.0775 30.0675
5000 2 -9.495 12.66 31.65
5001 2 -11.0775 14.2425 -30.0675
5002 2 -9.495 15.825 -28.485
5003 3 -11.0775 14.2425 -26.9025
5004 3 -9.495 15.825 -25.32
5005 4 -11.0775 14.2425 -23.7375
5006 3 -9.495 15.825 -22.155
5007 3 -11.0775 14.2425 -20.5725
5008 4 -9.495 15.825 -18.99
5009 2 -11.0775 14.2425 -17.4075
5010 3 -11.0775 14.2425 -14.2425
5011 1 -9.495 15.825 -12.66
5012 1 -11.0775 14.2425 -11.0775
5013 4 -9.495 15.825 -9.495
5014 3 -11.0775 14.2425 -7.9125
5015 2 -9.495 15.825 -6.33
5016 3 -11.0775 14.2425 -4.7475
5017 4 -9.495 15.825 -3.165
5018 1 -11.0775 14.2425 -1.5825
5019 4 -9.495 15.825 0.0
5020 1 -11.0775 14.2425 1.5825
5021 1 -9.495 15.825 3.165
5022 3 -11.0775 14.2425 4.7475
5023 1 -9.495 15.825 6.33
5024 1 -11.0775 14.2425 7.9125
5025 3 -9.495 15.825 9.495
5026 1 -11.0775 14.2425 11.0775
5027 4 -9.495 15.825 12.66
5028 2 -11.0775 14.2425 14.2425
5029 1 -9.495 15.825 15.825
5030 1 -11.0775 14.2425 17.4075
5031 3 -9.495 15.825 18.99
5032 2 -11.0775 14.2425 20.5725
5033 4 -9.495 15.825 22.155
5034 1 -11.0775 14.2425 23.7375
5035 4 -9.495 15.825 25.32
5036 1 -11.0775 14.2425 26.9025
5037 4 -9.495 15.825 28.485
5038 1 -11.0775 14.2425 30.0675
5039 3 -9.495 15.825 31.65
5040 1 -11.0775 17.4075 -30.0675
5041 2 -9.495 18.99 -28.485
5042 4 -11.0775 17.4075 -26.9025
5043 4 -9.495 18.99 -25.32
5044 3 -11.0775 17.4075 -23.7375
5045 3 -9.495 18.99 -22.155
5046 1 -11.0775 17.4075 -20.5725
5047 3 -9.495 18.99 -18.99
5048 3 -9.495 18.99 -15.825
5049 4 -11.0775 17.4075 -14.2425
5050 4 -9.495 18.99 -12.66
5051 3 -11.0775 17.4075 -11.0775
5052 3 -9.495 18.99 -9.495
5053 3 -11.0775 17.4075 -7.9125
5054 4 -9.495 18.99 -6.33
5055 1 -11.0775 17.4075 -4.7475
5056 3 -9.495 18.99 -3.165
5057 4 -11.0775 17.4075 -1.5825
5058 3 -9.495 18.99 0.0
5059 2 -11.0775 17.4075 1.5825
5060 1 -9.495 18.99 3.165
5061 2 -11.0775 17.4075 4.7475
5062 4 -9.495 18.99 6.33
5063 3 -11.0775 17.4075 7.9125
5064 3 -9.495 18.99 9.495
5065 2 -11.0775 17.4075 11.0775
5066 3 -9.495 18.99 12.66
5067 3 -11.0775 17.4075 14.2425
5068 3 -9.495 18.99 15.825
5069 2 -11.0775 17.4075 17.4075
5070 3 -9.495 18.99 18.99
5071 2 -11.0775 17.4075 20.5725
5072 4 -11.0775 17.4075 23.7375
5073 4 -9.495 18.99 25.32
5074 2 -11.0775 17.4075 26.9025
5075 1 -9.495 18.99 28.485
5076 1 -11.0775 17.4075 30.0675
5077 1 -9.495 18.99 31.65
5078 2 -11.0775 20.5725 -30.0675
5079 3 -9.495 22.155 -28.485
5080 3 -11.0775 20.5725 -26.9025
5081 4 -9.495 22.155 -25.32
5082 3 -11.0775 20.5725 -23.7375
5083 1 -9.495 22.155 -22.155
5084 2 -11.0775 20.5725 -20.5725
5085 3 -9.495 22.155 -18.99
5086 1 -11.0775 20.5725 -17.4075
5087 3 -9.495 22.155 -15.825
5088 2 -11.0775 20.5725 -14.2425
5089 2 -9.495 22.155 -12.66
5090 4 -11.0775 20.5725 -11.0775
5091 1 -9.495 22.155 -9.495
5092 1 -11.0775 20.5725 -7.9125
5093 1 -9.495 22.155 -6.33
5094 3 -11.0775 20.5725 -4.7475
5095 3 -11.0775 20.5725 -1.5825
5096 2 -9.495 22.155 0.0
5097 1 -11.0775 20.5725 1.5825
5098 1 -9.495 22.155 3.165
5099 2 -11.0775 20.5725 4.7475
5100 3 -9.495 22.155 6.33
5101 2 -11.0775 20.5725 7.9125
5102 3 -9.495 22.155 9.495
5103 3 -11.0775 20.5725 11.0775
5104 2 -9.495 22.155 12.66
5105 1 -11.0775 20.5725 14.2425
5106 4 -9.495 22.155 15.825
5107 4 -11.0775 20.5725 17.4075
5108 1 -9.495 22.155 18.99
5109 1 -11.0775 20.5725 20.5725
5110 1 -9.495 22.155 22.155
5111 3 -11.0775 20.5725 23.7375
5112 4 -9.495 22.155 25.32
5113 3 -11.0775 20.5725 26.9025
5114 1 -9.495 22.155 28.485
5115 3 -11.0775 20.5725 30.0675
5116 3 -9.495 22.155 31.65
5117 3 -9.495 25.32 -28.485
5118 4 -11.0775 23.7375 -26.9025
5119 3 -9.495 25.32 -25.32
5120 1 -11.0775 23.7375 -23.7375
5121 4 -9.495 25.32 -22.155
5122 1 -11.0775 23.7375 -20.5725
5123 2 -9.495 25.32 -18.99
5124 1 -11.0775 23.7375 -17.4075
5125 1 -9.495 25.32 -15.825
5126 2 -11.0775 23.7375 -14.2425
5127 4 -9.495 25.32 -12.66
5128 2 -11.0775 23.7375 -11.0775
5129 2 -9.495 25.32 -9.495
5130 4 -11.0775 23.7375 -7.9125
5131 1 -9.495 25.32 -6.33
5132 1 -11.0775 23.7375 -4.7475
5133 4 -9.495 25.32 -3.165
5134 4 -11.0775 23.7375 -1.5825
5135 4 -9.495 25.32 0.0
5136 3 -11.0775 23.7375 1.5825
5137 3 -9.495 25.32 3.165
5138 4 -11.0775 23.7375 4.7475
5139 4 -9.495 25.32 6.33
5140 2 -11.0775 23.7375 7.9125
5141 1 -9.495 25.32 9.495
5142 4 -11.0775 23.7375 11.0775
5143 1 -9.495 25.32 12.66
5144 2 -11.0775 23.7375 14.2425
5145 4 -9.495 25.32 15.825
5146 3 -11.0775 23.7375 17.4075
5147 2 -9.495 25.32 18.99
5148 4 -11.0775 23.7375 20.5725
5149 1 -9.495 25.32 22.155
5150 2 -11.0775 23.7375 23.7375
5151 1 -9.495 25.32 25.32
5152 3 -11.0775 23.7375 26.9025
5153 1 -9.495 25.32 28.485
5154 4 -11.0775 23.7375 30.0675
5155 4 -11.0775 26.9025 -30.0675
5156 1 -9.495 28.485 -28.485
5157 2 -11.0775 26.9025 -26.9025
5158 2 -9.495 28.485 -25.32
5159 4 -11.0775 26.9025 -23.7375
5160 1 -9.495 28.485 -22.155
5161 2 -11.0775 26.9025 -20.5725
5162 4 -9.495 28.485 -18.99
5163 2 -11.0775 26.9025 -17.4075
5164 1 -9.495 28.485 -15.825
5165 4 -11.0775 26.9025 -14.2425
5166 2 -9.495 28.485 -12.66
5167 4 -11.0775 26.9025 -11.0775
5168 2 -9.495 28.485 -9.495
5169 2 -11.0775 26.9025 -7.9125
5170 3 -9.495 28.485 -6.33
5171 1 -11.0775 26.9025 -4.7475
5172 2 -9.495 28.485 -3.165
5173 3 -11.0775 26.9025 -1.5825
5174 1 -9.495 28.485 0.0
5175 4 -11.0775 26.9025 1.5825
5176 1 -9.495 28.485 3.165
5177 1 -11.0775 26.9025 4.7475
5178 2 -9.495 28.485 6.33
5179 2 -11.0775 26.9025 7.9125
5180 1 -9.495 28.485 9.495
5181 1 -11.0775 26.9025 11.0775
5182 2 -11.0775 26.9025 14.2425
5183 3 -9.495 28.485 15.825
5184 1 -11.0775 26.9025 17.4075
5185 1 -11.0775 26.9025 20.5725
5186 2 -9.495 28.485 22.155
5187 2 -11.0775 26.9025 23.7375
5188 3 -9.495 28.485 25.32
5189 2 -11.0775 26.9025 26.9025
5190 3 -9.495 28.485 28.485
5191 4 -11.0775 26.9025 30.0675
5192 3 -9.495 28.485 31.65
5193 4 -11.0775 30.0675 -30.0675
5194 2 -9.495 31.65 -28.485
5195 3 -11.0775 30.0675 -26.9025
5196 2 -9.495 31.65 -25.32
5197 1 -11.0775 30.0675 -23.7375
5198 2 -9.495 31.65 -22.155
5199 1 -11.0775 30.0675 -20.5725
5200 1 -9.495 31.65 -18.99
5201 4 -11.0775 30.0675 -17.4075
5202 1 -9.495 31.65 -15.825
5203 1 -11.0775 30.0675 -14.2425
5204 1 -9.495 31.65 -12.66
5205 2 -11.0775 30.0675 -11.0775
5206 4 -9.495 31.65 -9.495
5207 1 -11.0775 30.0675 -7.9125
5208 2 -9.495 31.65 -6.33
5209 2 -11.0775 30.0675 -4.7475
5210 3 -9.495 31.65 -3.165
5211 3 -11.0775 30.0675 -1.5825
5212 1 -9.495 31.65 0.0
5213 3 -11.0775 30.0675 1.5825
5214 3 -9.495 31.65 3.165
5215 4 -11.0775 30.0675 4.7475
5216 3 -9.495 31.65 6.33
5217 4 -11.0775 30.0675 7.9125
5218 4 -9.495 31.65 9.495
5219 4 -11.0775 30.0675 11.0775
5220 4 -9.495 31.65 12.66
5221 3 -11.0775 30.0675 14.2425
5222 2 -9.495 31.65 15.825
5223 4 -11.0775 30.0675 17.4075
5224 4 -9.495 31.65 18.99
5225 1 -11.0775 30.0675 20.5725
5226 3 -9.495 31.65 22.155
5227 4 -9.495 31.65 25.32
5228 3 -11.0775 30.0675 26.9025
5229 4 -9.495 31.65 28.485
5230 3 -11.0775 30.0675 30.0675
5231 3 -9.495 31.65 31.65
5232 2 -7.9125 -30.0675 -30.0675
5233 3 -6.33 -28.485 -28.485
5234 1 -7.9125 -30.0675 -26.9025
5235 4 -6.33 -28.485 -25.32
5236 1 -7.9125 -30.0675 -23.7375
5237 3 -6.33 -28.485 -22.155
5238 3 -6.33 -28.485 -18.99
5239 1 -7.9125 -30.0675 -17.4075
5240 1 -6.33 -28.485 -15.825
5241 2 -7.9125 -30.0675 -14.2425
5242 4 -6.33 -28.485 -12.66
5243 2 -7.9125 -30.0675 -11.0775
5244 3 -6.33 -28.485 -9.495
5245 4 -7.9125 -30.0675 -7.9125
5246 1 -7.9125 -30.0675 -4.7475
5247 3 -6.33 -28.485 -3.165
5248 3 -7.9125 -30.0675 -1.5825
5249 4 -6.33 -28.485 0.0
5250 4 -7.9125 -30.0675 1.5825
5251 3 -6.33 -28.485 3.165
5252 4 -7.9125 -30.0675 4.7475
5253 2 -6.33 -28.485 6.33
5254 2 -7.9125 -30.0675 7.9125
5255 3 -6.33 -28.485 9.495
5256 4 -7.9125 -30.0675 11.0775
5257 3 -6.33 -28.485 12.66
5258 2 -7.9125 -30.0675 14.2425
5259 2 -6.33 -28.485 15.825
5260 4 -7.9125 -30.0675 17.4075
5261 2 -6.33 -28.485 18.99
5262 3 -7.9125 -30.0675 20.5725
5263 3 -6.33 -28.485 22.155
5264 4 -7.9125 -30.0675 23.7375
5265 3 -6.33 -28.485 25.32
5266 4 -7.9125 -30.0675 26.9025
5267 4 -7.9125 -30.0675 30.0675
5268 3 -6.33 -28.485 31.65
5269 3 -7.9125 -26.9025 -30.0675
5270 2 -6.33 -25.32 -28.485
5271 1 -7.9125 -26.9025 -26.9025
5272 1 -6.33 -25.32 -25.32
5273 3 -7.9125 -26.9025 -23.7375
5274 2 -6.33 -25.32 -22.155
5275 1 -7.9125 -26.9025 -20.5725
5276 4 -6.33 -25.32 -18.99
5277 3 -7.9125 -26.9025 -17.4075
5278 4 -6.33 -25.32 -15.825
5279 3 -7.9125 -26.9025 -14.2425
5280 2 -6.33 -25.32 -12.66
5281 4 -7.9125 -26.9025 -11.0775
5282 2 -7.9125 -26.9025 -7.9125
5283 3 -6.33 -25.32 -6.33
5284 2 -7.9125 -26.9025 -4.7475
5285 1 -6.33 -25.32 -3.165
5286 2 -7.9125 -26.9025 -1.5825
5287 4 -6.33 -25.32 0.0
5288 2 -7.9125 -26.9025 1.5825
5289 2 -6.33 -25.32 3.165
5290 1 -7.9125 -26.9025 4.7475
5291 2 -6.33 -25.32 6.33
5292 1 -7.9125 -26.9025 7.9125
5293 4 -6.33 -25.32 9.495
5294 1 -7.9125 -26.9025 11.0775
5295 3 -6.33 -25.32 12.66
5296 2 -7.9125 -26.9025 14.2425
5297 2 -7.9125 -26.9025 17.4075
5298 1 -7.9125 -26.9025 20.5725
5299 2 -6.33 -25.32 22.155
5300 1 -7.9125 -26.9025 23.7375
5301 2 -6.33 -25.32 25.32
5302 3 -7.9125 -26.9025 26.9025
5303 2 -6.33 -25.32 28.485
5304 1 -7.9125 -26.9025 30.0675
5305 3 -6.33 -25.32 31.65
5306 2 -7.9125 -23.7375 -30.0675
5307 2 -6.33 -22.155 -28.485
5308 2 -7.9125 -23.7375 -26.9025
5309 2 -7.9125 -23.7375 -23.7375
5310 3 -6.33 -22.155 -22.155
5311 2 -7.9125 -23.7375 -20.5725
5312 4 -6.33 -22.155 -18.99
5313 2 -7.9125 -23.7375 -17.4075
5314 3 -6.33 -22.155 -15.825
5315 3 -7.9125 -23.7375 -14.2425
5316 2 -6.33 -22.155 -12.66
5317 2 -7.9125 -23.7375 -11.0775
5318 1 -6.33 -22.155 -9.495
5319 4 -7.9125 -23.7375 -7.9125
5320 1 -6.33 -22.155 -6.33
5321 3 -7.9125 -23.7375 -4.7475
5322 4 -6.33 -22.155 -3.165
5323 4 -7.9125 -23.7375 -1.5825
5324 4 -6.33 -22.155 0.0
5325 3 -7.9125 -23.7375 1.5825
5326 1 -6.33 -22.155 3.165
5327 1 -7.9125 -23.7375 4.7475
5328 2 -6.33 -22.155 6.33
5329 2 -7.9125 -23.7375 7.9125
5330 2 -6.33 -22.155 9.495
5331 4 -7.9125 -23.7375 11.0775
5332 4 -6.33 -22.155 12.66
5333 4 -7.9125 -23.7375 14.2425
5334 1 -7.9125 -23.7375 17.4075
5335 3 -6.33 -22.155 18.99
5336 1 -6.33 -22.155 22.155
5337 2 -7.9125 -23.7375 23.7375
5338 2 -6.33 -22.155 25.32
5339 3 -7.9125 -23.7375 26.9025
5340 4 -6.33 -22.155 28.485
5341 1 -7.9125 -23.7375 30.0675
5342 3 -6.33 -22.155 31.65
5343 3 -7.9125 -20.5725 -30.0675
5344 1 -6.33 -18.99 -28.485
5345 1 -7.9125 -20.5725 -26.9025
5346 1 -6.33 -18.99 -25.32
5347 4 -7.9125 -20.5725 -23.7375
5348 2 -6.33 -18.99 -22.155
5349 3 -7.9125 -20.5725 -20.5725
5350 2 -6.33 -18.99 -18.99
5351 4 -7.9125 -20.5725 -17.4075
5352 2 -6.33 -18.99 -15.825
5353 3 -7.9125 -20.5725 -14.2425
5354 2 -6.33 -18.99 -12.66
5355 2 -7.9125 -20.5725 -11.0775
5356 4 -6.33 -18.99 -9.495
5357 3 -7.9125 -20.5725 -7.9125
5358 1 -6.33 -18.99 -6.33
5359 1 -7.9125 -20.5725 -4.7475
5360 4 -6.33 -18.99 -3.165
5361 2 -7.9125 -20.5725 -1.5825
5362 1 -6.33 -18.99 0.0
5363 1 -7.9125 -20.5725 1.5825
5364 4 -6.33 -18.99 3.165
5365 3 -7.9125 -20.5725 4.7475
5366 4 -6.33 -18.99 6.33
5367 2 -7.9125 -20.5725 7.9125
5368 1 -6.33 -18.99 9.495
5369 2 -7.9125 -20.5725 11.0775
5370 2 -6.33 -18.99 12.66
5371 1 -7.9125 -20.5725 14.2425
5372 2 -6.33 -18.99 15.825
5373 2 -7.9125 -20.5725 17.4075
5374 1 -6.33 -18.99 18.99
5375 2 -7.9125 -20.5725 20.5725
5376 4 -6.33 -18.99 22.155
5377 2 -7.9125 -20.5725 23.7375
5378 3 -6.33 -18.99 25.32
5379 3 -7.9125 -20.5725 26.9025
5380 3 -6.33 -18.99 28.485
5381 3 -7.9125 -20.5725 30.0675
5382 1 -6.33 -18.99 31.65
5383 4 -7.9125 -17.4075 -30.0675
5384 2 -6.33 -15.825 -28.485
5385 3 -7.9125 -17.4075 -26.9025
5386 1 -6.33 -15.825 -25.32
5387 3 -7.9125 -17.4075 -23.7375
5388 4 -6.33 -15.825 -22.155
5389 1 -7.9125 -17.4075 -20.5725
5390 3 -6.33 -15.825 -18.99
5391 4 -7.9125 -17.4075 -17.4075
5392 3 -6.33 -15.825 -15.825
5393 2 -7.9125 -17.4075 -14.2425
5394 4 -6.33 -15.825 -12.66
5395 4 -7.9125 -17.4075 -11.0775
5396 2 -6.33 -15.825 -9.495
5397 4 -7.9125 -17.4075 -7.9125
5398 2 -6.33 -15.825 -6.33
5399 1 -7.9125 -17.4075 -4.7475
5400 1 -6.33 -15.825 -3.165
5401 4 -7.9125 -17.4075 -1.5825
5402 2 -6.33 -15.825 0.0
5403 1 -7.9125 -17.4075 1.5825
5404 3 -6.33 -15.825 3.165
5405 4 -7.9125 -17.4075 4.7475
5406 4 -6.33 -15.825 6.33
5407 3 -7.9125 -17.4075 7.9125
5408 3 -6.33 -15.825 9.495
5409 3 -7.9125 -17.4075 11.0775
5410 3 -7.9125 -17.4075 14.2425
5411 3 -6.33 -15.825 15.825
5412 3 -7.9125 -17.4075 17.4075
5413 4 -6.33 -15.825 18.99
5414 1 -7.9125 -17.4075 20.5725
5415 2 -6.33 -15.825 22.155
5416 4 -7.9125 -17.4075 23.7375
5417 2 -7.9125 -17.4075 26.9025
5418 2 -6.33 -15.825 28.485
5419 4 -7.9125 -17.4075 30.0675
5420 3 -6.33 -15.825 31.65
5421 2 -7.9125 -14.2425 -30.0675
5422 1 -6.33 -12.66 -28.485
5423 2 -7.9125 -14.2425 -26.9025
5424 4 -6.33 -12.66 -25.32
5425 2 -7.9125 -14.2425 -23.7375
5426 2 -7.9125 -14.2425 -20.5725
5427 3 -6.33 -12.66 -18.99
5428 4 -7.9125 -14.2425 -17.4075
5429 4 -6.33 -12.66 -15.825
5430 4 -7.9125 -14.2425 -14.2425
5431 3 -6.33 -12.66 -12.66
5432 1 -7.9125 -14.2425 -11.0775
5433 1 -6.33 -12.66 -9.495
5434 3 -7.9125 -14.2425 -7.9125
5435 3 -6.33 -12.66 -6.33
5436 4 -7.9125 -14.2425 -4.7475
5437 1 -6.33 -12.66 -3.165
5438 4 -7.9125 -14.2425 -1.5825
5439 3 -6.33 -12.66 0.0
5440 2 -7.9125 -14.2425 1.5825
5441 3 -6.33 -12.66 3.165
5442 4 -7.9125 -14.2425 4.7475
5443 3 -6.33 -12.66 6.33
5444 2 -7.9125 -14.2425 7.9125
5445 4 -6.33 -12.66 9.495
5446 4 -7.9125 -14.2425 11.0775
5447 4 -7.9125 -14.2425 14.2425
5448 3 -6.33 -12.66 18.99
5449 4 -7.9125 -14.2425 20.5725
5450 1 -6.33 -12.66 22.155
5451 3 -7.9125 -14.2425 23.7375
5452 2 -6.33 -12.66 25.32
5453 4 -7.9125 -14.2425 26.9025
5454 3 -6.33 -12.66 28.485
5455 2 -7.9125 -14.2425 30.0675
5456 3 -6.33 -12.66 31.65
5457 1 -7.9125 -11.0775 -30.0675
5458 4 -6.33 -9.495 -28.485
5459 1 -7.9125 -11.0775 -26.9025
5460 3 -6.33 -9.495 -25.32
5461 1 -7.9125 -11.0775 -23.7375
5462 1 -6.33 -9.495 -22.155
5463 4 -7.9125 -11.0775 -20.5725
5464 2 -6.33 -9.495 -18.99
5465 3 -7.9125 -11.0775 -17.4075
5466 2 -6.33 -9.495 -15.825
5467 1 -7.9125 -11.0775 -14.2425
5468 2 -6.33 -9.495 -12.66
5469 3 -7.9125 -11.0775 -11.0775
5470 4 -6.33 -9.495 -9.495
5471 1 -7.9125 -11.0775 -7.9125
5472 2 -6.33 -9.495 -6.33
5473 4 -7.9125 -11.0775 -4.7475
5474 3 -6.33 -9.495 -3.165
5475 1 -7.9125 -11.0775 -1.5825
5476 2 -6.33 -9.495 0.0
5477 3 -7.9125 -11.0775 1.5825
5478 1 -6.33 -9.495 3.165
5479 3 -7.9125 -11.0775 4.7475
5480 4 -6.33 -9.495 6.33
5481 3 -7.9125 -11.0775 7.9125
5482 4 -6.33 -9.495 9.495
5483 2 -7.9125 -11.0775 11.0775
5484 2 -6.33 -9.495 12.66
5485 4 -7.9125 -11.0775 14.2425
5486 4 -6.33 -9.495 15.825
5487 1 -7.9125 -11.0775 17.4075
5488 1 -6.33 -9.495 18.99
5489 2 -7.9125 -11.0775 20.5725
5490 3 -6.33 -9.495 22.155
5491 3 -7.9125 -11.0775 23.7375
5492 2 -6.33 -9.495 25.32
5493 4 -7.9125 -11.0775 26.9025
5494 2 -6.33 -9.495 28.485
5495 3 -7.9125 -11.0775 30.0675
5496 4 -6.33 -6.33 -28.485
5497 3 -7.9125 -7.9125 -26.9025
5498 1 -6.33 -6.33 -25.32
5499 1 -7.9125 -7.9125 -23.7375
5500 3 -6.33 -6.33 -22.155
5501 2 -7.9125 -7.9125 -20.5725
5502 4 -6.33 -6.33 -18.99
5503 4 -7.9125 -7.9125 -17.4075
5504 4 -6.33 -6.33 -15.825
5505 3 -7.9125 -7.9125 -14.2425
5506 1 -6.33 -6.33 -12.66
5507 2 -7.9125 -7.9125 -11.0775
5508 3 -6.33 -6.33 -9.495
5509 2 -7.9125 -7.9125 -7.9125
5510 4 -6.33 -6.33 -6.33
5511 1 -7.9125 -7.9125 -4.7475
5512 4 -6.33 -6.33 -3.165
5513 2 -7.9125 -7.9125 -1.5825
5514 4 -7.9125 -7.9125 1.5825
5515 4 -6.33 -6.33 3.165
5516 2 -7.9125 -7.9125 4.7475
5517 1 -6.33 -6.33 6.33
5518 3 -7.9125 -7.9125 7.9125
5519 1 -6.33 -6.33 9.495
5520 3 -7.9125 -7.9125 11.0775
5521 1 -6.33 -6.33 12.66
5522 4 -7.9125 -7.9125 14.2425
5523 2 -6.33 -6.33 15.825
5524 1 -7.9125 -7.9125 17.4075
5525 4 -6.33 -6.33 18.99
5526 3 -7.9125 -7.9125 20.5725
5527 3 -6.33 -6.33 22.155
5528 4 -7.9125 -7.9125 23.7375
5529 3 -6.33 -6.33 25.32
5530 4 -7.9125 -7.9125 26.9025
5531 4 -6.33 -6.33 28.485
5532 4 -7.9125 -7.9125 30.0675
5533 1 -6.33 -6.33 31.65
5534 4 -7.9125 -4.7475 -30.0675
5535 4 -6.33 -3.165 -28.485
5536 1 -7.9125 -4.7475 -26.9025
5537 1 -6.33 -3.165 -25.32
5538 3 -7.9125 -4.7475 -23.7375
5539 4 -6.33 -3.165 -22.155
5540 1 -7.9125 -4.7475 -20.5725
5541 3 -6.33 -3.165 -18.99
5542 1 -7.9125 -4.7475 -17.4075
5543 2 -6.33 -3.165 -15.825
5544 2 -7.9125 -4.7475 -14.2425
5545 1 -6.33 -3.165 -12.66
5546 1 -7.9125 -4.7475 -11.0775
5547 2 -6.33 -3.165 -9.495
5548 2 -7.9125 -4.7475 -7.9125
5549 3 -6.33 -3.165 -6.33
5550 2 -7.9125 -4.7475 -4.7475
5551 4 -6.33 -3.165 -3.165
5552 4 -7.9125 -4.7475 -1.5825
5553 3 -6.33 -3.165 0.0
5554 3 -7.9125 -4.7475 1.5825
5555 2 -6.33 -3.165 3.165
5556 4 -7.9125 -4.7475 4.7475
5557 2 -6.33 -3.165 6.33
5558 1 -7.9125 -4.7475 7.9125
5559 4 -6.33 -3.165 9.495
5560 4 -7.9125 -4.7475 11.0775
5561 1 -6.33 -3.165 12.66
5562 3 -7.9125 -4.7475 14.2425
5563 1 -6.33 -3.165 15.825
5564 2 -7.9125 -4.7475 17.4075
5565 1 -6.33 -3.165 22.155
5566 3 -7.9125 -4.7475 23.7375
5567 4 -6.33 -3.165 25.32
5568 2 -7.9125 -4.7475 26.9025
5569 3 -6.33 -3.165 28.485
5570 1 -7.9125 -4.7475 30.0675
5571 3 -6.33 -3.165 31.65
5572 4 -6.33 0.0 -28.485
5573 1 -7.9125 -1.5825 -26.9025
5574 2 -6.33 0.0 -25.32
5575 4 -7.9125 -1.5825 -23.7375
5576 3 -6.33 0.0 -22.155
5577 3 -7.9125 -1.5825 -20.5725
5578 4 -6.33 0.0 -18.99
5579 3 -7.9125 -1.5825 -17.4075
5580 3 -6.33 0.0 -15.825
5581 3 -6.33 0.0 -12.66
5582 1 -7.9125 -1.5825 -11.0775
5583 4 -6.33 0.0 -9.495
5584 1 -7.9125 -1.5825 -7.9125
5585 2 -6.33 0.0 -6.33
5586 4 -7.9125 -1.5825 -4.7475
5587 3 -6.33 0.0 -3.165
5588 3 -7.9125 -1.5825 -1.5825
5589 4 -6.33 0.0 0.0
5590 3 -7.9125 -1.5825 1.5825
5591 3 -6.33 0.0 3.165
5592 1 -7.9125 -1.5825 4.7475
5593 3 -6.33 0.0 6.33
5594 3 -7.9125 -1.5825 7.9125
5595 1 -6.33 0.0 9.495
5596 3 -7.9125 -1.5825 11.0775
5597 1 -6.33 0.0 12.66
5598 1 -7.9125 -1.5825 14.2425
5599 3 -6.33 0.0 15.825
5600 2 -7.9125 -1.5825 17.4075
5601 2 -6.33 0.0 18.99
5602 3 -7.9125 -1.5825 20.5725
5603 1 -6.33 0.0 22.155
5604 1 -7.9125 -1.5825 23.7375
5605 1 -6.33 0.0 25.32
5606 1 -7.9125 -1.5825 26.9025
5607 2 -6.33 0.0 28.485
5608 2 -7.9125 -1.5825 30.0675
5609 1 -6.33 0.0 31.65
5610 4 -7.9125 1.5825 -30.0675
5611 4 -6.33 3.165 -28.485
5612 3 -7.9125 1.5825 -26.9025
5613 3 -6.33 3.165 -25.32
5614 1 -7.9125 1.5825 -23.7375
5615 2 -6.33 3.165 -22.155
5616 1 -7.9125 1.5825 -20.5725
5617 2 -6.33 3.165 -18.99
5618 3 -7.9125 1.5825 -17.4075
5619 1 -6.33 3.165 -15.825
5620 2 -7.9125 1.5825 -14.2425
5621 1 -6.33 3.165 -12.66
5622 2 -7.9125 1.5825 -11.0775
5623 3 -6.33 3.165 -9.495
5624 2 -7.9125 1.5825 -7.9125
5625 3 -6.33 3.165 -6.33
5626 3 -7.9125 1.5825 -4.7475
5627 1 -6.33 3.165 -3.165
5628 1 -7.9125 1.5825 -1.5825
5629 4 -6.33 3.165 0.0
5630 2 -7.9125 1.5825 1.5825
5631 2 -6.33 3.165 3.165
5632 4 -7.9125 1.5825 4.7475
5633 4 -6.33 3.165 6.33
5634 3 -7.9125 1.5825 7.9125
5635 2 -6.33 3.165 9.495
5636 4 -7.9125 1.5825 11.0775
5637 2 -6.33 3.165 12.66
5638 1 -7.9125 1.5825 14.2425
5639 1 -6.33 3.165 15.825
5640 2 -7.9125 1.5825 17.4075
5641 2 -6.33 3.165 18.99
5642 2 -7.9125 1.5825 20.5725
5643 2 -6.33 3.165 22.155
5644 3 -7.9125 1.5825 23.7375
5645 4 -6.33 3.165 25.32
5646 4 -7.9125 1.5825 26.9025
5647 2 -6.33 3.165 28.485
5648 1 -6.33 3.165 31.65
5649 1 -7.9125 4.7475 -30.0675
5650 2 -6.33 6.33 -28.485
5651 4 -7.9125 4.7475 -26.9025
5652 2 -6.33 6.33 -25.32
5653 3 -7.9125 4.7475 -23.7375
5654 3 -7.9125 4.7475 -20.5725
5655 2 -6.33 6.33 -18.99
5656 3 -7.9125 4.7475 -17.4075
5657 1 -7.9125 4.7475 -14.2425
5658 4 -6.33 6.33 -12.66
5659 3 -7.9125 4.7475 -11.0775
5660 4 -6.33 6.33 -9.495
5661 3 -6.33 6.33 -6.33
5662 4 -7.9125 4.7475 -4.7475
5663 2 -6.33 6.33 -3.165
5664 3 -7.9125 4.7475 -1.5825
5665 4 -6.33 6.33 0.0
5666 1 -7.9125 4.7475 1.5825
5667 1 -6.33 6.33 3.165
5668 3 -7.9125 4.7475 4.7475
5669 2 -6.33 6.33 6.33
5670 3 -7.9125 4.7475 7.9125
5671 4 -6.33 6.33 9.495
5672 3 -7.9125 4.7475 11.0775
5673 1 -6.33 6.33 12.66
5674 2 -7.9125 4.7475 14.2425
5675 3 -6.33 6.33 15.825
5676 2 -7.9125 4.7475 17.4075
5677 2 -6.33 6.33 18.99
5678 4 -7.9125 4.7475 20.5725
5679 3 -6.33 6.33 22.155
5680 4 -7.9125 4.7475 23.7375
5681 2 -6.33 6.33 25.32
5682 3 -7.9125 4.7475 26.9025
5683 4 -6.33 6.33 28.485
5684 3 -7.9125 4.7475 30.0675
5685 4 -6.33 6.33 31.65
5686 4 -7.9125 7.9125 -30.0675
5687 1 -6.33 9.495 -28.485
5688 3 -7.9125 7.9125 -26.9025
5689 4 -6.33 9.495 -25.32
5690 2 -7.9125 7.9125 -23.7375
5691 2 -6.33 9.495 -22.155
5692 1 -7.9125 7.9125 -20.5725
5693 2 -6.33 9.495 -18.99
5694 4 -7.9125 7.9125 -17.4075
5695 4 -6.33 9.495 -15.825
5696 1 -7.9125 7.9125 -14.2425
5697 4 -6.33 9.495 -12.66
5698 1 -7.9125 7.9125 -11.0775
5699 2 -6.33 9.495 -9.495
5700 4 -7.9125 7.9125 -7.9125
5701 4 -6.33 9.495 -6.33
5702 3 -7.9125 7.9125 -4.7475
5703 3 -6.33 9.495 -3.165
5704 3 -7.9125 7.9125 -1.5825
5705 4 -6.33 9.495 0.0
5706 1 -7.9125 7.9125 1.5825
5707 1 -6.33 9.495 3.165
5708 4 -7.9125 7.9125 4.7475
5709 2 -6.33 9.495 6.33
5710 1 -7.9125 7.9125 7.9125
5711 2 -6.33 9.495 9.495
5712 2 -7.9125 7.9125 11.0775
5713 3 -6.33 9.495 12.66
5714 2 -7.9125 7.9125 14.2425
5715 4 -6.33 9.495 15.825
5716 2 -7.9125 7.9125 17.4075
5717 2 -6.33 9.495 18.99
5718 4 -7.9125 7.9125 20.5725
5719 3 -6.33 9.495 22.155
5720 2 -7.9125 7.9125 23.7375
5721 2 -6.33 9.495 25.32
5722 2 -7.9125 7.9125 26.9025
5723 2 -6.33 9.495 28.485
5724 4 -7.9125 7.9125 30.0675
5725 1 -6.33 9.495 31.65
5726 4 -7.9125 11.0775 -30.0675
5727 3 -6.33 12.66 -28.485
5728 1 -7.9125 11.0775 -26.9025
5729 4 -7.9125 11.0775 -23.7375
5730 4 -6.33 12.66 -22.155
5731 4 -7.9125 11.0775 -20.5725
5732 2 -6.33 12.66 -18.99
5733 2 -7.9125 11.0775 -17.4075
5734 3 -6.33 12.66 -15.825
5735 3 -6.33 12.66 -12.66
5736 3 -7.9125 11.0775 -11.0775
5737 1 -6.33 12.66 -9.495
5738 3 -7.9125 11.0775 -7.9125
5739 1 -6.33 12.66 -6.33
5740 2 -7.9125 11.0775 -4.7475
5741 2 -6.33 12.66 -3.165
5742 1 -7.9125 11.0775 -1.5825
5743 4 -6.33 12.66 0.0
5744 1 -7.9125 11.0775 1.5825
5745 4 -6.33 12.66 3.165
5746 3 -7.9125 11.0775 4.7475
5747 2 -6.33 12.66 6.33
5748 1 -7.9125 11.0775 7.9125
5749 3 -6.33 12.66 9.495
5750 1 -7.9125 11.0775 11.0775
5751 4 -6.33 12.66 12.66
5752 2 -7.9125 11.0775 14.2425
5753 1 -6.33 12.66 15.825
5754 3 -7.9125 11.0775 17.4075
5755 4 -6.33 12.66 18.99
5756 4 -7.9125 11.0775 20.5725
5757 4 -6.33 12.66 22.155
5758 2 -7.9125 11.0775 23.7375
5759 2 -6.33 12.66 25.32
5760 3 -7.9125 11.0775 26.9025
5761 2 -6.33 12.66 28.485
5762 1 -7.9125 11.0775 30.0675
5763 2 -6.33 12.66 31.65
5764 3 -7.9125 14.2425 -30.0675
5765 2 -6.33 15.825 -28.485
5766 4 -7.9125 14.2425 -26.9025
5767 3 -6.33 15.825 -25.32
5768 3 -7.9125 14.2425 -23.7375
5769 3 -6.33 15.825 -22.155
5770 2 -7.9125 14.2425 -20.5725
5771 2 -6.33 15.825 -18.99
5772 4 -7.9125 14.2425 -17.4075
5773 2 -6.33 15.825 -15.825
5774 4 -7.9125 14.2425 -14.2425
5775 3 -6.33 15.825 -12.66
5776 3 -7.9125 14.2425 -11.0775
5777 4 -6.33 15.825 -9.495
5778 1 -7.9125 14.2425 -7.9125
5779 4 -6.33 15.825 -6.33
5780 4 -7.9125 14.2425 -4.7475
5781 4 -6.33 15.825 -3.165
5782 4 -7.9125 14.2425 -1.5825
5783 3 -6.33 15.825 0.0
5784 4 -7.9125 14.2425 1.5825
5785 3 -6.33 15.825 3.165
5786 2 -7.9125 14.2425 4.7475
5787 3 -6.33 15.825 6.33
5788 1 -7.9125 14.2425 7.9125
5789 4 -6.33 15.825 9.495
5790 4 -7.9125 14.2425 11.0775
5791 1 -6.33 15.825 12.66
5792 3 -7.9125 14.2425 14.2425
5793 4 -6.33 15.825 15.825
5794 3 -7.9125 14.2425 17.4075
5795 1 -6.33 15.825 18.99
5796 4 -7.9125 14.2425 20.5725
5797 3 -6.33 15.825 22.155
5798 3 -7.9125 14.2425 23.7375
5799 2 -6.33 15.825 25.32
5800 2 -7.9125 14.2425 26.9025
5801 3 -6.33 15.825 28.485
5802 3 -7.9125 14.2425 30.0675
5803 2 -7.9125 17.4075 -30.0675
5804 1 -6.33 18.99 -28.485
5805 2 -7.9125 17.4075 -26.9025
5806 2 -6.33 18.99 -25.32
5807 2 -7.9125 17.4075 -23.7375
5808 1 -6.33 18.99 -22.155
5809 2 -7.9125 17.4075 -20.5725
5810 2 -6.33 18.99 -18.99
5811 4 -7.9125 17.4075 -17.4075
5812 2 -6.33 18.99 -15.825
5813 3 -7.9125 17.4075 -14.2425
5814 4 -6.33 18.99 -12.66
5815 2 -7.9125 17.4075 -11.0775
5816 2 -6.33 18.99 -9.495
5817 2 -7.9125 17.4075 -7.9125
5818 3 -6.33 18.99 -6.33
5819 4 -7.9125 17.4075 -4.7475
5820 4 -6.33 18.99 -3.165
5821 2 -7.9125 17.4075 -1.5825
5822 2 -6.33 18.99 0.0
5823 4 -7.9125 17.4075 1.5825
5824 3 -6.33 18.99 3.165
5825 3 -7.9125 17.4075 4.7475
5826 4 -6.33 18.99 6.33
5827 4 -7.9125 17.4075 7.9125
5828 3 -6.33 18.99 9.495
5829 2 -7.9125 17.4075 11.0775
5830 2 -6.33 18.99 12.66
5831 4 -7.9125 17.4075 14.2425
5832 2 -6.33 18.99 15.825
5833 4 -7.9125 17.4075 17.4075
5834 2 -6.33 18.99 18.99
5835 3 -7.9125 17.4075 20.5725
5836 4 -7.9125 17.4075 23.7375
5837 1 -6.33 18.99 25.32
5838 4 -7.9125 17.4075 26.9025
5839 4 -6.33 18.99 28.485
5840 1 -7.9125 17.4075 30.0675
5841 3 -6.33 18.99 31.65
5842 2 -7.9125 20.5725 -30.0675
5843 2 -6.33 22.155 -28.485
5844 3 -7.9125 20.5725 -26.9025
5845 4 -6.33 22.155 -25.32
5846 3 -7.9125 20.5725 -23.7375
5847 4 -6.33 22.155 -22.155
5848 1 -7.9125 20.5725 -20.5725
5849 2 -6.33 22.155 -18.99
5850 4 -7.9125 20.5725 -17.4075
5851 2 -7.9125 20.5725 -14.2425
5852 2 -6.33 22.155 -12.66
5853 3 -7.9125 20.5725 -11.0775
5854 4 -6.33 22.155 -9.495
5855 4 -7.9125 20.5725 -7.9125
5856 2 -6.33 22.155 -6.33
5857 2 -7.9125 20.5725 -4.7475
5858 1 -6.33 22.155 -3.165
5859 2 -7.9125 20.5725 -1.5825
5860 1 -6.33 22.155 0.0
5861 1 -7.9125 20.5725 1.5825
5862 3 -6.33 22.155 3.165
5863 2 -7.9125 20.5725 4.7475
5864 1 -6.33 22.155 6.33
5865 4 -7.9125 20.5725 7.9125
5866 3 -6.33 22.155 9.495
5867 2 -7.9125 20.5725 11.0775
5868 2 -6.33 22.155 12.66
5869 2 -7.9125 20.5725 14.2425
5870 1 -6.33 22.155 15.825
5871 3 -7.9125 20.5725 17.4075
5872 2 -6.33 22.155 18.99
5873 3 -6.33 22.155 22.155
5874 3 -7.9125 20.5725 23.7375
5875 3 -6.33 22.155 25.32
5876 4 -6.33 22.155 28.485
5877 4 -7.9125 20.5725 30.0675
5878 3 -6.33 22.155 31.65
5879 2 -6.33 25.32 -28.485
5880 1 -7.9125 23.7375 -26.9025
5881 1 -6.33 25.32 -25.32
5882 4 -7.9125 23.7375 -23.7375
5883 1 -6.33 25.32 -22.155
5884 2 -7.9125 23.7375 -20.5725
5885 2 -6.33 25.32 -18.99
5886 4 -7.9125 23.7375 -17.4075
5887 1 -6.33 25.32 -15.825
5888 1 -7.9125 23.7375 -14.2425
5889 1 -6.33 25.32 -12.66
5890 4 -7.9125 23.7375 -11.0775
5891 3 -6.33 25.32 -9.495
5892 1 -7.9125 23.7375 -7.9125
5893 4 -6.33 25.32 -6.33
5894 3 -7.9125 23.7375 -4.7475
5895 4 -6.33 25.32 -3.165
5896 1 -7.9125 23.7375 -1.5825
5897 2 -6.33 25.32 0.0
5898 2 -7.9125 23.7375 1.5825
5899 4 -6.33 25.32 3.165
5900 1 -7.9125 23.7375 4.7475
5901 2 -7.9125 23.7375 7.9125
5902 4 -6.33 25.32 9.495
5903 1 -7.9125 23.7375 11.0775
5904 3 -6.33 25.32 12.66
5905 3 -7.9125 23.7375 14.2425
5906 1 -6.33 25.32 15.825
5907 1 -7.9125 23.7375 17.4075
5908 2 -6.33 25.32 18.99
5909 1 -7.9125 23.7375 20.5725
5910 4 -6.33 25.32 22.155
5911 4 -7.9125 23.7375 23.7375
5912 4 -6.33 25.32 25.32
5913 3 -7.9125 23.7375 26.9025
5914 4 -6.33 25.32 28.485
5915 1 -6.33 25.32 31.65
5916 2 -7.9125 26.9025 -30.0675
5917 3 -6.33 28.485 -28.485
5918 3 -7.9125 26.9025 -26.9025
5919 3 -6.33 28.485 -25.32
5920 1 -7.9125 26.9025 -23.7375
5921 3 -6.33 28.485 -22.155
5922 1 -7.9125 26.9025 -20.5725
5923 2 -6.33 28.485 -18.99
5924 3 -6.33 28.485 -15.825
5925 3 -7.9125 26.9025 -14.2425
5926 3 -6.33 28.485 -12.66
5927 4 -7.9125 26.9025 -11.0775
5928 3 -6.33 28.485 -9.495
5929 4 -7.9125 26.9025 -7.9125
5930 3 -6.33 28.485 -6.33
5931 1 -7.9125 26.9025 -4.7475
5932 1 -6.33 28.485 -3.165
5933 2 -7.9125 26.9025 -1.5825
5934 3 -6.33 28.485 0.0
5935 2 -7.9125 26.9025 1.5825
5936 1 -6.33 28.485 3.165
5937 4 -7.9125 26.9025 4.7475
5938 1 -6.33 28.485 6.33
5939 1 -7.9125 26.9025 7.9125
5940 2 -6.33 28.485 9.495
5941 3 -7.9125 26.9025 11.0775
5942 1 -6.33 28.485 12.66
5943 1 -7.9125 26.9025 14.2425
5944 3 -6.33 28.485 15.825
5945 4 -7.9125 26.9025 17.4075
5946 3 -6.33 28.485 18.99
5947 1 -7.9125 26.9025 20.5725
5948 2 -6.33 28.485 22.155
5949 2 -7.9125 26.9025 23.7375
5950 2 -6.33 28.485 25.32
5951 2 -7.9125 26.9025 26.9025
5952 2 -6.33 28.485 28.485
5953 2 -7.9125 26.9025 30.0675
5954 1 -6.33 28.485 31.65
5955 2 -7.9125 30.0675 -30.0675
5956 3 -6.33 31.65 -28.485
5957 2 -7.9125 30.0675 -26.9025
5958 2 -6.33 31.65 -25.32
5959 4 -7.9125 30.0675 -23.7375
5960 1 -6.33 31.65 -22.155
5961 2 -7.9125 30.0675 -20.5725
5962 4 -6.33 31.65 -18.99
5963 1 -7.9125 30.0675 -17.4075
5964 4 -6.33 31.65 -15.825
5965 4 -7.9125 30.0675 -14.2425
5966 3 -6.33 31.65 -12.66
5967 1 -7.9125 30.0675 -11.0775
5968 1 -6.33 31.65 -9.495
5969 1 -7.9125 30.0675 -7.9125
5970 3 -6.33 31.65 -6.33
5971 3 -7.9125 30.0675 -4.7475
5972 1 -6.33 31.65 -3.165
5973 1 -7.9125 30.0675 -1.5825
5974 2 -6.33 31.65 0.0
5975 4 -7.9125 30.0675 1.5825
5976 1 -6.33 31.65 3.165
5977 1 -7.9125 30.0675 4.7475
5978 1 -6.33 31.65 6.33
5979 1 -7.9125 30.0675 7.9125
5980 3 -7.9125 30.0675 11.0775
5981 2 -6.33 31.65 12.66
5982 4 -7.9125 30.0675 14.2425
5983 3 -6.33 31.65 15.825
5984 1 -7.9125 30.0675 17.4075
5985 2 -6.33 31.65 18.99
5986 1 -7.9125 30.0675 20.5725
5987 4 -6.33 31.65 22.155
5988 4 -7.9125 30.0675 23.7375
5989 2 -6.33 31.65 25.32
5990 1 -7.9125 30.0675 26.9025
5991 3 -6.33 31.65 28.485
5992 1 -7.9125 30.0675 30.0675
5993 3 -6.33 31.65 31.65
5994 1 -4.7475 -30.0675 -30.0675
5995 4 -3.165 -28.485 -28.485
5996 1 -4.7475 -30.0675 -26.9025
5997 2 -3.165 -28.485 -25.32
5998 1 -4.7475 -30.0675 -23.7375
5999 3 -3.165 -28.485 -22.155
6000 1 -4.7475 -30.0675 -20.5725
6001 3 -3.165 -28.485 -18.99
6002 4 -4.7475 -30.0675 -17.4075
6003 1 -3.165 -28.485 -15.825
6004 2 -4.7475 -30.0675 -14.2425
6005 1 -3.165 -28.485 -12.66
6006 2 -4.7475 -30.0675 -11.0775
6007 3 -3.165 -28.485 -9.495
6008 2 -4.7475 -30.0675 -7.9125
6009 4 -3.165 -28.485 -6.33
6010 2 -4.7475 -30.0675 -4.7475
6011 1 -3.165 -28.485 -3.165
6012 2 -4.7475 -30.0675 -1.5825
6013 3 -4.7475 -30.0675 1.5825
6014 1 -3.165 -28.485 3.165
6015 3 -4.7475 -30.0675 4.7475
6016 4 -3.165 -28.485 6.33
6017 3 -4.7475 -30.0675 7.9125
6018 2 -3.165 -28.485 9.495
6019 1 -4.7475 -30.0675 11.0775
6020 4 -3.165 -28.485 12.66
6021 2 -4.7475 -30.0675 14.2425
6022 1 -3.165 -28.485 15.825
6023 3 -4.7475 -30.0675 17.4075
6024 3 -3.165 -28.485 18.99
6025 2 -4.7475 -30.0675 20.5725
6026 2 -4.7475 -30.0675 23.7375
6027 4 -3.165 -28.485 25.32
6028 4 -4.7475 -30.0675 26.9025
6029 4 -3.165 -28.485 28.485
6030 2 -3.165 -28.485 31.65
6031 3 -4.7475 -26.9025 -30.0675
6032 1 -3.165 -25.32 -28.485
6033 2 -4.7475 -26.9025 -26.9025
6034 4 -3.165 -25.32 -25.32
6035 4 -4.7475 -26.9025 -23.7375
6036 1 -4.7475 -26.9025 -20.5725
6037 4 -3.165 -25.32 -18.99
6038 3 -4.7475 -26.9025 -17.4075
6039 4 -3.165 -25.32 -15.825
6040 1 -4.7475 -26.9025 -14.2425
6041 3 -3.165 -25.32 -12.66
6042 3 -4.7475 -26.9025 -11.0775
6043 2 -3.165 -25.32 -9.495
6044 1 -4.7475 -26.9025 -7.9125
6045 2 -3.165 -25.32 -6.33
6046 1 -4.7475 -26.9025 -4.7475
6047 1 -3.165 -25.32 -3.165
6048 3 -4.7475 -26.9025 -1.5825
6049 3 -3.165 -25.32 0.0
6050 4 -4.7475 -26.9025 1.5825
6051 4 -3.165 -25.32 3.165
6052 3 -4.7475 -26.9025 4.7475
6053 1 -3.165 -25.32 6.33
6054 4 -4.7475 -26.9025 7.9125
6055 3 -3.165 -25.32 9.495
6056 3 -4.7475 -26.9025 11.0775
6057 3 -3.165 -25.32 12.66
6058 3 -4.7475 -26.9025 14.2425
6059 3 -3.165 -25.32 15.825
6060 1 -3.165 -25.32 18.99
6061 3 -4.7475 -26.9025 20.5725
6062 1 -3.165 -25.32 22.155
6063 2 -4.7475 -26.9025 23.7375
6064 4 -3.165 -25.32 25.32
6065 1 -3.165 -25.32 28.485
6066 4 -4.7475 -26.9025 30.0675
6067 2 -3.165 -25.32 31.65
6068 2 -4.7475 -23.7375 -30.0675
6069 3 -3.165 -22.155 -28.485
6070 2 -4.7475 -23.7375 -26.9025
6071 3 -3.165 -22.155 -25.32
6072 3 -4.7475 -23.7375 -23.7375
6073 3 -3.165 -22.155 -22.155
6074 4 -4.7475 -23.7375 -20.5725
6075 4 -3.165 -22.155 -18.99
6076 1 -4.7475 -23.7375 -17.4075
6077 2 -3.165 -22.155 -15.825
6078 4 -4.7475 -23.7375 -14.2425
6079 3 -3.165 -22.155 -12.66
6080 2 -4.7475 -23.7375 -11.0775
6081 1 -3.165 -22.155 -9.495
6082 1 -4.7475 -23.7375 -7.9125
6083 1 -3.165 -22.155 -6.33
6084 3 -4.7475 -23.7375 -4.7475
6085 4 -3.165 -22.155 -3.165
6086 2 -4.7475 -23.7375 -1.5825
6087 2 -4.7475 -23.7375 1.5825
6088 4 -3.165 -22.155 3.165
6089 3 -4.7475 -23.7375 4.7475
6090 4 -3.165 -22.155 6.33
6091 4 -4.7475 -23.7375 7.9125
6092 4 -3.165 -22.155 9.495
6093 1 -4.7475 -23.7375 11.0775
6094 3 -3.165 -22.155 12.66
6095 4 -4.7475 -23.7375 14.2425
6096 4 -3.165 -22.155 15.825
6097 3 -4.7475 -23.7375 17.4075
6098 3 -3.165 -22.155 18.99
6099 3 -4.7475 -23.7375 20.5725
6100 1 -3.165 -22.155 22.155
6101 3 -4.7475 -23.7375 23.7375
6102 4 -3.165 -22.155 25.32
6103 1 -3.165 -22.155 28.485
6104 1 -4.7475 -23.7375 30.0675
6105 1 -3.165 -22.155 31.65
6106 3 -4.7475 -20.5725 -30.0675
6107 3 -3.165 -18.99 -28.485
6108 4 -4.7475 -20.5725 -26.9025
6109 2 -3.165 -18.99 -25.32
6110 3 -4.7475 -20.5725 -23.7375
6111 3 -3.165 -18.99 -22.155
6112 2 -4.7475 -20.5725 -20.5725
6113 1 -3.165 -18.99 -18.99
6114 1 -4.7475 -20.5725 -17.4075
6115 4 -3.165 -18.99 -15.825
6116 1 -4.7475 -20.5725 -14.2425
6117 3 -3.165 -18.99 -12.66
6118 3 -4.7475 -20.5725 -11.0775
6119 1 -3.165 -18.99 -9.495
6120 2 -4.7475 -20.5725 -7.9125
6121 1 -3.165 -18.99 -6.33
6122 3 -4.7475 -20.5725 -4.7475
6123 3 -3.165 -18.99 -3.165
6124 4 -4.7475 -20.5725 -1.5825
6125 4 -3.165 -18.99 0.0
6126 2 -4.7475 -20.5725 1.5825
6127 1 -3.165 -18.99 3.165
6128 2 -4.7475 -20.5725 4.7475
6129 4 -4.7475 -20.5725 7.9125
6130 3 -3.165 -18.99 9.495
6131 4 -4.7475 -20.5725 11.0775
6132 3 -3.165 -18.99 12.66
6133 3 -4.7475 -20.5725 14.2425
6134 2 -3.165 -18.99 15.825
6135 4 -4.7475 -20.5725 17.4075
6136 2 -3.165 -18.99 18.99
6137 4 -4.7475 -20.5725 20.5725
6138 2 -3.165 -18.99 22.155
6139 1 -4.7475 -20.5725 23.7375
6140 1 -3.165 -18.99 25.32
6141 3 -4.7475 -20.5725 26.9025
6142 4 -3.165 -18.99 28.485
6143 3 -4.7475 -20.5725 30.0675
6144 2 -3.165 -18.99 31.65
6145 2 -4.7475 -17.4075 -30.0675
6146 2 -3.165 -15.825 -28.485
6147 3 -4.7475 -17.4075 -26.9025
6148 3 -3.165 -15.825 -25.32
6149 4 -4.7475 -17.4075 -23.7375
6150 3 -3.165 -15.825 -22.155
6151 2 -4.7475 -17.4075 -20.5725
6152 3 -3.165 -15.825 -18.99
6153 4 -4.7475 -17.4075 -17.4075
6154 4 -3.165 -15.825 -15.825
6155 1 -4.7475 -17.4075 -14.2425
6156 1 -3.165 -15.825 -12.66
6157 2 -4.7475 -17.4075 -11.0775
6158 2 -3.165 -15.825 -9.495
6159 4 -4.7475 -17.4075 -7.9125
6160 1 -3.165 -15.825 -6.33
6161 4 -4.7475 -17.4075 -4.7475
6162 1 -3.165 -15.825 -3.165
6163 1 -4.7475 -17.4075 -1.5825
6164 1 -3.165 -15.825 0.0
6165 2 -3.165 -15.825 3.165
6166 3 -3.165 -15.825 6.33
6167 2 -4.7475 -17.4075 7.9125
6168 1 -3.165 -15.825 9.495
6169 3 -4.7475 -17.4075 11.0775
6170 4 -3.165 -15.825 12.66
6171 2 -4.7475 -17.4075 14.2425
6172 3 -3.165 -15.825 15.825
6173 3 -4.7475 -17.4075 17.4075
6174 3 -3.165 -15.825 18.99
6175 2 -4.7475 -17.4075 20.5725
6176 1 -3.165 -15.825 22.155
6177 1 -4.7475 -17.4075 23.7375
6178 4 -4.7475 -17.4075 26.9025
6179 1 -3.165 -15.825 28.485
6180 3 -3.165 -15.825 31.65
6181 4 -4.7475 -14.2425 -30.0675
6182 3 -3.165 -12.66 -28.485
6183 3 -4.7475 -14.2425 -26.9025
6184 4 -3.165 -12.66 -25.32
6185 3 -4.7475 -14.2425 -23.7375
6186 1 -3.165 -12.66 -22.155
6187 1 -4.7475 -14.2425 -20.5725
6188 3 -3.165 -12.66 -18.99
6189 4 -4.7475 -14.2425 -17.4075
6190 2 -3.165 -12.66 -15.825
6191 4 -4.7475 -14.2425 -14.2425
6192 1 -3.165 -12.66 -12.66
6193 2 -4.7475 -14.2425 -11.0775
6194 2 -3.165 -12.66 -9.495
6195 1 -4.7475 -14.2425 -7.9125
6196 4 -3.165 -12.66 -6.33
6197 1 -4.7475 -14.2425 -4.7475
6198 2 -3.165 -12.66 -3.165
6199 4 -4.7475 -14.2425 -1.5825
6200 2 -3.165 -12.66 0.0
6201 1 -4.7475 -14.2425 1.5825
6202 2 -3.165 -12.66 3.165
6203 3 -4.7475 -14.2425 4.7475
6204 4 -3.165 -12.66 6.33
6205 2 -4.7475 -14.2425 7.9125
6206 2 -3.165 -12.66 9.495
6207 2 -4.7475 -14.2425 11.0775
6208 1 -3.165 -12.66 12.66
6209 3 -4.7475 -14.2425 14.2425
6210 3 -3.165 -12.66 15.825
6211 2 -4.7475 -14.2425 17.4075
6212 4 -3.165 -12.66 18.99
6213 3 -4.7475 -14.2425 20.5725
6214 4 -3.165 -12.66 22.155
6215 2 -3.165 -12.66 25.32
6216 2 -4.7475 -14.2425 26.9025
6217 2 -3.165 -12.66 28.485
6218 1 -4.7475 -14.2425 30.0675
6219 1 -3.165 -12.66 31.65
6220 2 -4.7475 -11.0775 -30.0675
6221 3 -3.165 -9.495 -28.485
6222 3 -4.7475 -11.0775 -26.9025
6223 4 -3.165 -9.495 -25.32
6224 2 -4.7475 -11.0775 -23.7375
6225 1 -3.165 -9.495 -22.155
6226 1 -4.7475 -11.0775 -20.5725
6227 1 -3.165 -9.495 -18.99
6228 3 -4.7475 -11.0775 -17.4075
6229 1 -3.165 -9.495 -15.825
6230 1 -4.7475 -11.0775 -14.2425
6231 2 -3.165 -9.495 -12.66
6232 2 -4.7475 -11.0775 -11.0775
6233 1 -3.165 -9.495 -9.495
6234 4 -4.7475 -11.0775 -7.9125
6235 1 -3.165 -9.495 -6.33
6236 3 -4.7475 -11.0775 -4.7475
6237 2 -3.165 -9.495 -3.165
6238 3 -4.7475 -11.0775 -1.5825
6239 2 -4.7475 -11.0775 1.5825
6240 3 -3.165 -9.495 3.165
6241 2 -4.7475 -11.0775 4.7475
6242 3 -3.165 -9.495 6.33
6243 2 -4.7475 -11.0775 7.9125
6244 3 -3.165 -9.495 9.495
6245 1 -4.7475 -11.0775 11.0775
6246 4 -3.165 -9.495 12.66
6247 3 -4.7475 -11.0775 14.2425
6248 1 -3.165 -9.495 15.825
6249 4 -4.7475 -11.0775 17.4075
6250 4 -3.165 -9.495 18.99
6251 4 -4.7475 -11.0775 20.5725
6252 4 -3.165 -9.495 22.155
6253 2 -4.7475 -11.0775 23.7375
6254 4 -3.165 -9.495 25.32
6255 1 -4.7475 -11.0775 26.9025
6256 2 -3.165 -9.495 28.485
6257 2 -4.7475 -11.0775 30.0675
6258 4 -3.165 -9.495 31.65
6259 2 -4.7475 -7.9125 -30.0675
6260 3 -3.165 -6.33 -28.485
6261 3 -4.7475 -7.9125 -26.9025
6262 1 -3.165 -6.33 -25.32
6263 4 -4.7475 -7.9125 -23.7375
6264 2 -3.165 -6.33 -22.155
6265 2 -4.7475 -7.9125 -20.5725
6266 1 -3.165 -6.33 -18.99
6267 1 -3.165 -6.33 -15.825
6268 4 -4.7475 -7.9125 -14.2425
6269 2 -3.165 -6.33 -12.66
6270 1 -4.7475 -7.9125 -11.0775
6271 1 -3.165 -6.33 -9.495
6272 1 -4.7475 -7.9125 -7.9125
6273 1 -3.165 -6.33 -6.33
6274 2 -4.7475 -7.9125 -4.7475
6275 1 -3.165 -6.33 -3.165
6276 2 -4.7475 -7.9125 -1.5825
6277 3 -3.165 -6.33 0.0
6278 4 -4.7475 -7.9125 1.5825
6279 4 -3.165 -6.33 3.165
6280 2 -4.7475 -7.9125 4.7475
6281 3 -3.165 -6.33 6.33
6282 3 -3.165 -6.33 9.495
6283 1 -4.7475 -7.9125 11.0775
6284 2 -3.165 -6.33 12.66
6285 2 -4.7475 -7.9125 14.2425
6286 3 -3.165 -6.33 15.825
6287 3 -4.7475 -7.9125 17.4075
6288 2 -3.165 -6.33 18.99
6289 3 -4.7475 -7.9125 20.5725
6290 2 -3.165 -6.33 22.155
6291 2 -4.7475 -7.9125 23.7375
6292 4 -3.165 -6.33 25.32
6293 3 -4.7475 -7.9125 26.9025
6294 4 -3.165 -6.33 28.485
6295 3 -4.7475 -7.9125 30.0675
6296 4 -3.165 -6.33 31.65
6297 3 -4.7475 -4.7475 -30.0675
6298 2 -3.165 -3.165 -28.485
6299 3 -4.7475 -4.7475 -26.9025
6300 4 -3.165 -3.165 -25.32
6301 1 -4.7475 -4.7475 -23.7375
6302 2 -3.165 -3.165 -22.155
6303 3 -4.7475 -4.7475 -20.5725
6304 4 -3.165 -3.165 -18.99
6305 4 -4.7475 -4.7475 -17.4075
6306 3 -3.165 -3.165 -15.825
6307 1 -4.7475 -4.7475 -14.2425
6308 3 -3.165 -3.165 -12.66
6309 4 -4.7475 -4.7475 -11.0775
6310 4 -3.165 -3.165 -9.495
6311 3 -4.7475 -4.7475 -7.9125
6312 4 -3.165 -3.165 -6.33
6313 1 -4.7475 -4.7475 -4.7475
6314 1 -3.165 -3.165 -3.165
6315 1 -4.7475 -4.7475 -1.5825
6316 1 -3.165 -3.165 0.0
6317 1 -4.7475 -4.7475 1.5825
6318 3 -3.165 -3.165 3.165
6319 2 -4.7475 -4.7475 4.7475
6320 1 -4.7475 -4.7475 7.9125
6321 3 -4.7475 -4.7475 11.0775
6322 4 -3.165 -3.165 12.66
6323 3 -4.7475 -4.7475 14.2425
6324 3 -4.7475 -4.7475 17.4075
6325 1 -3.165 -3.165 18.99
6326 2 -4.7475 -4.7475 20.5725
6327 2 -3.165 -3.165 22.155
6328 2 -4.7475 -4.7475 23.7375
6329 1 -3.165 -3.165 25.32
6330 4 -4.7475 -4.7475 26.9025
6331 2 -3.165 -3.165 28.485
6332 4 -4.7475 -4.7475 30.0675
6333 3 -3.165 -3.165 31.65
6334 2 -4.7475 -1.5825 -30.0675
6335 3 -3.165 0.0 -28.485
6336 3 -4.7475 -1.5825 -26.9025
6337 4 -3.165 0.0 -25.32
6338 1 -4.7475 -1.5825 -23.7375
6339 4 -3.165 0.0 -22.155
6340 1 -4.7475 -1.5825 -20.5725
6341 3 -3.165 0.0 -18.99
6342 2 -4.7475 -1.5825 -17.4075
6343 2 -3.165 0.0 -15.825
6344 2 -4.7475 -1.5825 -14.2425
6345 4 -3.165 0.0 -12.66
6346 4 -4.7475 -1.5825 -11.0775
6347 3 -3.165 0.0 -9.495
6348 4 -4.7475 -1.5825 -7.9125
6349 3 -3.165 0.0 -6.33
6350 2 -4.7475 -1.5825 -4.7475
6351 3 -3.165 0.0 -3.165
6352 3 -4.7475 -1.5825 -1.5825
6353 3 -3.165 0.0 0.0
6354 2 -3.165 0.0 3.165
6355 4 -4.7475 -1.5825 4.7475
6356 1 -3.165 0.0 6.33
6357 2 -4.7475 -1.5825 7.9125
6358 2 -3.165 0.0 9.495
6359 3 -4.7475 -1.5825 11.0775
6360 3 -3.165 0.0 12.66
6361 3 -4.7475 -1.5825 14.2425
6362 3 -3.165 0.0 15.825
6363 4 -4.7475 -1.5825 17.4075
6364 4 -3.165 0.0 18.99
6365 2 -4.7475 -1.5825 20.5725
6366 1 -3.165 0.0 22.155
6367 3 -4.7475 -1.5825 23.7375
6368 2 -4.7475 -1.5825 26.9025
6369 1 -3.165 0.0 28.485
6370 1 -4.7475 -1.5825 30.0675
6371 4 -3.165 0.0 31.65
6372 3 -4.7475 1.5825 -30.0675
6373 2 -3.165 3.165 -28.485
6374 3 -4.7475 1.5825 -26.9025
6375 2 -3.165 3.165 -25.32
6376 4 -4.7475 1.5825 -23.7375
6377 3 -3.165 3.165 -22.155
6378 1 -4.7475 1.5825 -20.5725
6379 1 -3.165 3.165 -18.99
6380 4 -3.165 3.165 -15.825
6381 4 -4.7475 1.5825 -14.2425
6382 2 -3.165 3.165 -12.66
6383 1 -4.7475 1.5825 -11.0775
6384 4 -3.165 3.165 -9.495
6385 3 -4.7475 1.5825 -7.9125
6386 1 -3.165 3.165 -6.33
6387 4 -3.165 3.165 -3.165
6388 1 -3.165 3.165 0.0
6389 2 -4.7475 1.5825 1.5825
6390 3 -3.165 3.165 3.165
6391 2 -4.7475 1.5825 4.7475
6392 3 -4.7475 1.5825 7.9125
6393 1 -3.165 3.165 9.495
6394 1 -4.7475 1.5825 11.0775
6395 2 -3.165 3.165 12.66
6396 4 -4.7475 1.5825 14.2425
6397 4 -3.165 3.165 15.825
6398 1 -4.7475 1.5825 17.4075
6399 1 -3.165 3.165 18.99
6400 3 -4.7475 1.5825 20.5725
6401 4 -3.165 3.165 22.155
6402 4 -4.7475 1.5825 23.7375
6403 4 -3.165 3.165 25.32
6404 2 -4.7475 1.5825 26.9025
6405 2 -3.165 3.165 28.485
6406 2 -4.7475 1.5825 30.0675
6407 2 -3.165 3.165 31.65
6408 3 -4.7475 4.7475 -30.0675
6409 1 -3.165 6.33 -28.485
6410 1 -4.7475 4.7475 -26.9025
6411 3 -4.7475 4.7475 -23.7375
6412 2 -3.165 6.33 -22.155
6413 2 -4.7475 4.7475 -20.5725
6414 3 -3.165 6.33 -18.99
6415 4 -4.7475 4.7475 -17.4075
6416 4 -3.165 6.33 -15.825
6417 1 -4.7475 4.7475 -14.2425
6418 2 -3.165 6.33 -12.66
6419 3 -4.7475 4.7475 -11.0775
6420 3 -3.165 6.33 -9.495
6421 3 -3.165 6.33 -6.33
6422 4 -4.7475 4.7475 -4.7475
6423 3 -3.165 6.33 -3.165
6424 1 -4.7475 4.7475 -1.5825
6425 4 -3.165 6.33 0.0
6426 4 -4.7475 4.7475 1.5825
6427 4 -3.165 6.33 3.165
6428 3 -4.7475 4.7475 4.7475
6429 1 -3.165 6.33 6.33
6430 3 -4.7475 4.7475 7.9125
6431 2 -4.7475 4.7475 11.0775
6432 1 -3.165 6.33 12.66
6433 2 -4.7475 4.7475 14.2425
6434 3 -3.165 6.33 15.825
6435 4 -4.7475 4.7475 17.4075
6436 3 -3.165 6.33 18.99
6437 3 -4.7475 4.7475 20.5725
6438 3 -3.165 6.33 22.155
6439 1 -4.7475 4.7475 23.7375
6440 3 -3.165 6.33 25.32
6441 4 -4.7475 4.7475 26.9025
6442 4 -3.165 6.33 28.485
6443 2 -4.7475 4.7475 30.0675
6444 2 -3.165 6.33 31.65
6445 3 -4.7475 7.9125 -30.0675
6446 1 -3.165 9.495 -28.485
6447 2 -4.7475 7.9125 -26.9025
6448 3 -3.165 9.495 -25.32
6449 2 -4.7475 7.9125 -23.7375
6450 1 -3.165 9.495 -22.155
6451 2 -4.7475 7.9125 -20.5725
6452 2 -4.7475 7.9125 -17.4075
6453 1 -3.165 9.495 -15.825
6454 1 -4.7475 7.9125 -14.2425
6455 1 -3.165 9.495 -12.66
6456 2 -4.7475 7.9125 -11.0775
6457 3 -3.165 9.495 -9.495
6458 1 -4.7475 7.9125 -7.9125
6459 3 -3.165 9.495 -6.33
6460 3 -4.7475 7.9125 -4.7475
6461 1 -3.165 9.495 -3.165
6462 2 -4.7475 7.9125 -1.5825
6463 2 -3.165 9.495 0.0
6464 4 -4.7475 7.9125 1.5825
6465 4 -3.165 9.495 3.165
6466 3 -4.7475 7.9125 4.7475
6467 3 -3.165 9.495 6.33
6468 3 -4.7475 7.9125 7.9125
6469 3 -3.165 9.495 9.495
6470 2 -4.7475 7.9125 11.0775
6471 4 -3.165 9.495 12.66
6472 2 -4.7475 7.9125 14.2425
6473 3 -4.7475 7.9125 17.4075
6474 3 -3.165 9.495 18.99
6475 3 -4.7475 7.9125 20.5725
6476 3 -3.165 9.495 22.155
6477 4 -3.165 9.495 25.32
6478 3 -4.7475 7.9125 26.9025
6479 1 -3.165 9.495 28.485
6480 2 -4.7475 7.9125 30.0675
6481 1 -3.165 9.495 31.65
6482 3 -3.165 12.66 -28.485
6483 2 -4.7475 11.0775 -26.9025
6484 4 -3.165 12.66 -25.32
6485 1 -4.7475 11.0775 -23.7375
6486 1 -3.165 12.66 -22.155
6487 2 -4.7475 11.0775 -20.5725
6488 4 -4.7475 11.0775 -17.4075
6489 4 -3.165 12.66 -15.825
6490 3 -4.7475 11.0775 -14.2425
6491 2 -3.165 12.66 -12.66
6492 3 -4.7475 11.0775 -11.0775
6493 4 -3.165 12.66 -9.495
6494 3 -4.7475 11.0775 -7.9125
6495 3 -3.165 12.66 -6.33
6496 4 -4.7475 11.0775 -4.7475
6497 4 -3.165 12.66 -3.165
6498 2 -4.7475 11.0775 -1.5825
6499 4 -3.165 12.66 0.0
6500 2 -4.7475 11.0775 1.5825
6501 4 -3.165 12.66 3.165
6502 2 -4.7475 11.0775 4.7475
6503 4 -3.165 12.66 6.33
6504 4 -3.165 12.66 9.495
6505 3 -4.7475 11.0775 11.0775
6506 3 -3.165 12.66 12.66
6507 3 -4.7475 11.0775 14.2425
6508 1 -3.165 12.66 15.825
6509 2 -4.7475 11.0775 17.4075
6510 3 -4.7475 11.0775 20.5725
6511 3 -3.165 12.66 22.155
6512 4 -4.7475 11.0775 23.7375
6513 4 -3.165 12.66 25.32
6514 2 -4.7475 11.0775 26.9025
6515 3 -3.165 12.66 28.485
6516 1 -4.7475 11.0775 30.0675
6517 2 -3.165 12.66 31.65
6518 3 -4.7475 14.2425 -30.0675
6519 3 -3.165 15.825 -28.485
6520 4 -4.7475 14.2425 -26.9025
6521 1 -3.165 15.825 -25.32
6522 3 -4.7475 14.2425 -23.7375
6523 3 -3.165 15.825 -22.155
6524 3 -4.7475 14.2425 -20.5725
6525 2 -3.165 15.825 -18.99
6526 1 -4.7475 14.2425 -17.4075
6527 3 -3.165 15.825 -15.825
6528 3 -4.7475 14.2425 -14.2425
6529 1 -3.165 15.825 -12.66
6530 4 -4.7475 14.2425 -11.0775
6531 4 -3.165 15.825 -9.495
6532 2 -4.7475 14.2425 -7.9125
6533 2 -3.165 15.825 -6.33
6534 1 -4.7475 14.2425 -4.7475
6535 4 -3.165 15.825 -3.165
6536 3 -4.7475 14.2425 -1.5825
6537 2 -3.165 15.825 0.0
6538 1 -4.7475 14.2425 1.5825
6539 3 -3.165 15.825 3.165
6540 2 -4.7475 14.2425 4.7475
6541 4 -3.165 15.825 6.33
6542 2 -4.7475 14.2425 7.9125
6543 2 -3.165 15.825 9.495
6544 4 -4.7475 14.2425 11.0775
6545 2 -3.165 15.825 12.66
6546 1 -4.7475 14.2425 14.2425
6547 3 -3.165 15.825 15.825
6548 3 -4.7475 14.2425 17.4075
6549 1 -3.165 15.825 18.99
6550 3 -4.7475 14.2425 20.5725
6551 2 -3.165 15.825 22.155
6552 4 -4.7475 14.2425 23.7375
6553 3 -3.165 15.825 25.32
6554 4 -4.7475 14.2425 26.9025
6555 2 -3.165 15.825 28.485
6556 4 -4.7475 14.2425 30.0675
6557 2 -3.165 15.825 31.65
6558 2 -4.7475 17.4075 -30.0675
6559 4 -3.165 18.99 -28.485
6560 1 -4.7475 17.4075 -26.9025
6561 4 -3.165 18.99 -25.32
6562 1 -4.7475 17.4075 -23.7375
6563 3 -3.165 18.99 -22.155
6564 2 -4.7475 17.4075 -20.5725
6565 1 -3.165 18.99 -18.99
6566 4 -4.7475 17.4075 -17.4075
6567 3 -3.165 18.99 -15.825
6568 1 -4.7475 17.4075 -14.2425
6569 4 -3.165 18.99 -12.66
6570 2 -4.7475 17.4075 -11.0775
6571 2 -3.165 18.99 -9.495
6572 4 -4.7475 17.4075 -7.9125
6573 3 -3.165 18.99 -6.33
6574 4 -4.7475 17.4075 -4.7475
6575 3 -3.165 18.99 -3.165
6576 3 -4.7475 17.4075 -1.5825
6577 1 -3.165 18.99 0.0
6578 2 -4.7475 17.4075 1.5825
6579 2 -3.165 18.99 3.165
6580 4 -4.7475 17.4075 4.7475
6581 3 -3.165 18.99 6.33
6582 1 -4.7475 17.4075 7.9125
6583 2 -3.165 18.99 9.495
6584 2 -4.7475 17.4075 11.0775
6585 4 -3.165 18.99 12.66
6586 2 -4.7475 17.4075 14.2425
6587 4 -3.165 18.99 15.825
6588 2 -4.7475 17.4075 17.4075
6589 3 -3.165 18.99 18.99
6590 1 -4.7475 17.4075 20.5725
6591 4 -3.165 18.99 22.155
6592 3 -4.7475 17.4075 23.7375
6593 3 -3.165 18.99 25.32
6594 2 -4.7475 17.4075 26.9025
6595 2 -3.165 18.99 28.485
6596 3 -4.7475 17.4075 30.0675
6597 1 -3.165 18.99 31.65
6598 1 -4.7475 20.5725 -30.0675
6599 3 -3.165 22.155 -28.485
6600 4 -4.7475 20.5725 -26.9025
6601 3 -3.165 22.155 -25.32
6602 1 -4.7475 20.5725 -23.7375
6603 2 -3.165 22.155 -22.155
6604 3 -4.7475 20.5725 -20.5725
6605 3 -3.165 22.155 -18.99
6606 3 -4.7475 20.5725 -17.4075
6607 4 -3.165 22.155 -15.825
6608 4 -4.7475 20.5725 -14.2425
6609 2 -3.165 22.155 -12.66
6610 4 -4.7475 20.5725 -11.0775
6611 4 -3.165 22.155 -9.495
6612 2 -3.165 22.155 -6.33
6613 1 -4.7475 20.5725 -4.7475
6614 3 -3.165 22.155 -3.165
6615 3 -4.7475 20.5725 -1.5825
6616 1 -3.165 22.155 0.0
6617 3 -4.7475 20.5725 1.5825
6618 3 -3.165 22.155 3.165
6619 4 -3.165 22.155 6.33
6620 2 -4.7475 20.5725 7.9125
6621 4 -4.7475 20.5725 11.0775
6622 3 -3.165 22.155 12.66
6623 1 -4.7475 20.5725 14.2425
6624 2 -3.165 22.155 15.825
6625 2 -4.7475 20.5725 17.4075
6626 3 -3.165 22.155 18.99
6627 1 -4.7475 20.5725 20.5725
6628 1 -3.165 22.155 22.155
6629 1 -4.7475 20.5725 23.7375
6630 2 -3.165 22.155 25.32
6631 1 -4.7475 20.5725 26.9025
6632 2 -3.165 22.155 28.485
6633 4 -4.7475 20.5725 30.0675
6634 1 -3.165 22.155 31.65
6635 1 -3.165 25.32 -28.485
6636 3 -4.7475 23.7375 -26.9025
6637 2 -3.165 25.32 -25.32
6638 1 -3.165 25.32 -22.155
6639 2 -4.7475 23.7375 -20.5725
6640 4 -3.165 25.32 -18.99
6641 4 -4.7475 23.7375 -17.4075
6642 3 -3.165 25.32 -15.825
6643 3 -4.7475 23.7375 -14.2425
6644 1 -3.165 25.32 -12.66
6645 1 -4.7475 23.7375 -11.0775
6646 3 -3.165 25.32 -9.495
6647 2 -4.7475 23.7375 -7.9125
6648 4 -3.165 25.32 -6.33
6649 4 -4.7475 23.7375 -4.7475
6650 4 -3.165 25.32 -3.165
6651 3 -4.7475 23.7375 -1.5825
6652 2 -3.165 25.32 0.0
6653 3 -4.7475 23.7375 1.5825
6654 2 -3.165 25.32 3.165
6655 1 -4.7475 23.7375 4.7475
6656 2 -3.165 25.32 6.33
6657 1 -4.7475 23.7375 7.9125
6658 4 -3.165 25.32 9.495
6659 3 -4.7475 23.7375 11.0775
6660 3 -4.7475 23.7375 14.2425
6661 1 -3.165 25.32 15.825
6662 2 -3.165 25.32 18.99
6663 2 -4.7475 23.7375 20.5725
6664 1 -3.165 25.32 22.155
6665 2 -4.7475 23.7375 23.7375
6666 2 -3.165 25.32 25.32
6667 2 -4.7475 23.7375 26.9025
6668 4 -3.165 25.32 28.485
6669 1 -4.7475 23.7375 30.0675
6670 4 -3.165 25.32 31.65
6671 2 -4.7475 26.9025 -30.0675
6672 1 -3.165 28.485 -28.485
6673 4 -4.7475 26.9025 -26.9025
6674 4 -3.165 28.485 -25.32
6675 1 -4.7475 26.9025 -23.7375
6676 2 -3.165 28.485 -22.155
6677 2 -4.7475 26.9025 -20.5725
6678 1 -3.165 28.485 -18.99
6679 4 -4.7475 26.9025 -17.4075
6680 2 -3.165 28.485 -15.825
6681 1 -4.7475 26.9025 -14.2425
6682 3 -3.165 28.485 -12.66
6683 3 -4.7475 26.9025 -11.0775
6684 4 -3.165 28.485 -9.495
6685 1 -3.165 28.485 -6.33
6686 1 -4.7475 26.9025 -4.7475
6687 1 -3.165 28.485 -3.165
6688 2 -4.7475 26.9025 -1.5825
6689 1 -3.165 28.485 0.0
6690 2 -4.7475 26.9025 1.5825
6691 2 -3.165 28.485 3.165
6692 2 -4.7475 26.9025 4.7475
6693 1 -3.165 28.485 6.33
6694 3 -4.7475 26.9025 7.9125
6695 4 -3.165 28.485 9.495
6696 2 -4.7475 26.9025 11.0775
6697 1 -3.165 28.485 12.66
6698 4 -4.7475 26.9025 14.2425
6699 2 -3.165 28.485 15.825
6700 4 -4.7475 26.9025 17.4075
6701 3 -3.165 28.485 18.99
6702 1 -4.7475 26.9025 20.5725
6703 1 -3.165 28.485 22.155
6704 3 -4.7475 26.9025 23.7375
6705 3 -3.165 28.485 25.32
6706 3 -4.7475 26.9025 26.9025
6707 4 -3.165 28.485 28.485
6708 4 -4.7475 26.9025 30.0675
6709 4 -4.7475 30.0675 -30.0675
6710 4 -3.165 31.65 -28.485
6711 2 -4.7475 30.0675 -26.9025
6712 1 -3.165 31.65 -25.32
6713 2 -4.7475 30.0675 -23.7375
6714 2 -3.165 31.65 -22.155
6715 2 -4.7475 30.0675 -20.5725
6716 4 -3.165 31.65 -18.99
6717 3 -4.7475 30.0675 -17.4075
6718 4 -3.165 31.65 -15.825
6719 3 -4.7475 30.0675 -14.2425
6720 3 -3.165 31.65 -12.66
6721 2 -4.7475 30.0675 -11.0775
6722 3 -3.165 31.65 -9.495
6723 1 -4.7475 30.0675 -7.9125
6724 1 -3.165 31.65 -6.33
6725 4 -4.7475 30.0675 -4.7475
6726 2 -3.165 31.65 -3.165
6727 3 -4.7475 30.0675 -1.5825
6728 2 -3.165 31.65 0.0
6729 4 -4.7475 30.0675 1.5825
6730 2 -3.165 31.65 3.165
6731 4 -4.7475 30.0675 4.7475
6732 1 -3.165 31.65 6.33
6733 1 -4.7475 30.0675 7.9125
6734 2 -3.165 31.65 9.495
6735 3 -4.7475 30.0675 11.0775
6736 3 -3.165 31.65 12.66
6737 2 -4.7475 30.0675 14.2425
6738 4 -3.165 31.65 15.825
6739 1 -4.7475 30.0675 17.4075
6740 3 -3.165 31.65 18.99
6741 3 -4.7475 30.0675 20.5725
6742 3 -3.165 31.65 22.155
6743 3 -4.7475 30.0675 23.7375
6744 2 -3.165 31.65 25.32
6745 1 -4.7475 30.0675 26.9025
6746 3 -3.165 31.65 28.485
6747 2 -4.7475 30.0675 30.0675
6748 1 -1.5825 -30.0675 -30.0675
6749 3 -1.5825 -30.0675 -26.9025
6750 3 0.0 -28.485 -25.32
6751 2 -1.5825 -30.0675 -23.7375
6752 3 0.0 -28.485 -22.155
6753 2 -1.5825 -30.0675 -20.5725
6754 3 0.0 -28.485 -18.99
6755 3 -1.5825 -30.0675 -17.4075
6756 2 0.0 -28.485 -15.825
6757 4 -1.5825 -30.0675 -14.2425
6758 2 0.0 -28.485 -12.66
6759 2 -1.5825 -30.0675 -11.0775
6760 1 0.0 -28.485 -9.495
6761 4 -1.5825 -30.0675 -7.9125
6762 3 0.0 -28.485 -6.33
6763 4 -1.5825 -30.0675 -4.7475
6764 3 0.0 -28.485 -3.165
6765 4 -1.5825 -30.0675 -1.5825
6766 1 0.0 -28.485 0.0
6767 3 -1.5825 -30.0675 1.5825
6768 3 0.0 -28.485 3.165
6769 4 -1.5825 -30.0675 4.7475
6770 1 0.0 -28.485 6.33
6771 2 -1.5825 -30.0675 7.9125
6772 3 0.0 -28.485 9.495
6773 3 0.0 -28.485 12.66
6774 3 -1.5825 -30.0675 14.2425
6775 4 0.0 -28.485 15.825
6776 1 -1.5825 -30.0675 17.4075
6777 1 0.0 -28.485 18.99
6778 2 -1.5825 -30.0675 20.5725
6779 3 0.0 -28.485 22.155
6780 4 -1.5825 -30.0675 23.7375
6781 2 0.0 -28.485 25.32
6782 2 -1.5825 -30.0675 26.9025
6783 1 0.0 -28.485 28.485
6784 3 -1.5825 -30.0675 30.0675
6785 2 0.0 -28.485 31.65
6786 3 -1.5825 -26.9025 -30.0675
6787 2 0.0 -25.32 -28.485
6788 2 -1.5825 -26.9025 -26.9025
6789 3 0.0 -25.32 -25.32
6790 4 -1.5825 -26.9025 -23.7375
6791 2 0.0 -25.32 -22.155
6792 2 -1.5825 -26.9025 -20.5725
6793 3 0.0 -25.32 -18.99
6794 1 -1.5825 -26.9025 -17.4075
6795 2 0.0 -25.32 -15.825
6796 2 -1.5825 -26.9025 -14.2425
6797 2 0.0 -25.32 -12.66
6798 4 -1.5825 -26.9025 -11.0775
6799 3 0.0 -25.32 -9.495
6800 3 -1.5825 -26.9025 -7.9125
6801 2 0.0 -25.32 -6.33
6802 1 -1.5825 -26.9025 -4.7475
6803 3 0.0 -25.32 -3.165
6804 4 -1.5825 -26.9025 -1.5825
6805 2 0.0 -25.32 0.0
6806 3 -1.5825 -26.9025 1.5825
6807 3 0.0 -25.32 3.165
6808 4 -1.5825 -26.9025 4.7475
6809 4 0.0 -25.32 6.33
6810 2 -1.5825 -26.9025 7.9125
6811 3 0.0 -25.32 9.495
6812 2 -1.5825 -26.9025 11.0775
6813 3 0.0 -25.32 12.66
6814 1 -1.5825 -26.9025 14.2425
6815 4 0.0 -25.32 15.825
6816 4 -1.5825 -26.9025 17.4075
6817 4 0.0 -25.32 18.99
6818 2 -1.5825 -26.9025 20.5725
6819 4 0.0 -25.32 22.155
6820 2 -1.5825 -26.9025 23.7375
6821 4 0.0 -25.32 25.32
6822 4 0.0 -25.32 28.485
6823 4 -1.5825 -26.9025 30.0675
6824 2 0.0 -25.32 31.65
6825 1 -1.5825 -23.7375 -30.0675
6826 2 0.0 -22.155 -28.485
6827 3 -1.5825 -23.7375 -26.9025
6828 1 0.0 -22.155 -25.32
6829 2 -1.5825 -23.7375 -23.7375
6830 4 0.0 -22.155 -22.155
6831 1 -1.5825 -23.7375 -20.5725
6832 2 0.0 -22.155 -18.99
6833 2 -1.5825 -23.7375 -17.4075
6834 1 0.0 -22.155 -15.825
6835 4 -1.5825 -23.7375 -14.2425
6836 3 0.0 -22.155 -12.66
6837 1 -1.5825 -23.7375 -11.0775
6838 2 -1.5825 -23.7375 -7.9125
6839 3 0.0 -22.155 -6.33
6840 4 0.0 -22.155 -3.165
6841 3 -1.5825 -23.7375 -1.5825
6842 2 0.0 -22.155 0.0
6843 3 -1.5825 -23.7375 1.5825
6844 1 0.0 -22.155 3.165
6845 1 -1.5825 -23.7375 4.7475
6846 2 0.0 -22.155 6.33
6847 2 0.0 -22.155 9.495
6848 2 -1.5825 -23.7375 11.0775
6849 1 0.0 -22.155 12.66
6850 2 -1.5825 -23.7375 14.2425
6851 1 0.0 -22.155 15.825
6852 2 -1.5825 -23.7375 17.4075
6853 4 0.0 -22.155 18.99
6854 1 -1.5825 -23.7375 20.5725
6855 2 0.0 -22.155 22.155
6856 1 -1.5825 -23.7375 23.7375
6857 1 0.0 -22.155 25.32
6858 3 -1.5825 -23.7375 26.9025
6859 2 0.0 -22.155 28.485
6860 1 -1.5825 -23.7375 30.0675
6861 4 0.0 -22.155 31.65
6862 4 -1.5825 -20.5725 -30.0675
6863 2 0.0 -18.99 -28.485
6864 4 0.0 -18.99 -25.32
6865 1 -1.5825 -20.5725 -23.7375
6866 2 0.0 -18.99 -22.155
6867 1 -1.5825 -20.5725 -20.5725
6868 4 0.0 -18.99 -18.99
6869 1 0.0 -18.99 -15.825
6870 2 -1.5825 -20.5725 -14.2425
6871 4 0.0 -18.99 -12.66
6872 3 -1.5825 -20.5725 -11.0775
6873 4 0.0 -18.99 -9.495
6874 1 -1.5825 -20.5725 -7.9125
6875 1 0.0 -18.99 -6.33
6876 1 -1.5825 -20.5725 -4.7475
6877 1 0.0 -18.99 -3.165
6878 2 -1.5825 -20.5725 -1.5825
6879 4 0.0 -18.99 0.0
6880 4 -1.5825 -20.5725 1.5825
6881 4 0.0 -18.99 3.165
6882 1 -1.5825 -20.5725 4.7475
6883 4 0.0 -18.99 6.33
6884 2 -1.5825 -20.5725 7.9125
6885 2 0.0 -18.99 9.495
6886 3 -1.5825 -20.5725 11.0775
6887 4 -1.5825 -20.5725 14.2425
6888 3 0.0 -18.99 15.825
6889 4 -1.5825 -20.5725 17.4075
6890 4 0.0 -18.99 18.99
6891 2 -1.5825 -20.5725 20.5725
6892 2 0.0 -18.99 22.155
6893 3 -1.5825 -20.5725 23.7375
6894 1 0.0 -18.99 25.32
6895 1 -1.5825 -20.5725 26.9025
6896 1 0.0 -18.99 28.485
6897 4 -1.5825 -20.5725 30.0675
6898 2 0.0 -18.99 31.65
6899 4 -1.5825 -17.4075 -30.0675
6900 3 0.0 -15.825 -28.485
6901 4 -1.5825 -17.4075 -26.9025
6902 4 0.0 -15.825 -25.32
6903 4 -1.5825 -17.4075 -23.7375
6904 1 0.0 -15.825 -22.155
6905 1 -1.5825 -17.4075 -20.5725
6906 1 0.0 -15.825 -18.99
6907 3 -1.5825 -17.4075 -17.4075
6908 4 0.0 -15.825 -15.825
6909 1 -1.5825 -17.4075 -14.2425
6910 3 0.0 -15.825 -12.66
6911 1 -1.5825 -17.4075 -11.0775
6912 1 0.0 -15.825 -9.495
6913 1 -1.5825 -17.4075 -7.9125
6914 4 0.0 -15.825 -6.33
6915 4 -1.5825 -17.4075 -4.7475
6916 2 0.0 -15.825 -3.165
6917 4 -1.5825 -17.4075 -1.5825
6918 3 0.0 -15.825 0.0
6919 1 -1.5825 -17.4075 1.5825
6920 4 0.0 -15.825 3.165
6921 3 -1.5825 -17.4075 4.7475
6922 2 0.0 -15.825 6.33
6923 3 -1.5825 -17.4075 7.9125
6924 3 0.0 -15.825 9.495
6925 4 -1.5825 -17.4075 14.2425
6926 3 0.0 -15.825 15.825
6927 2 -1.5825 -17.4075 17.4075
6928 3 0.0 -15.825 18.99
6929 4 -1.5825 -17.4075 20.5725
6930 4 0.0 -15.825 22.155
6931 4 -1.5825 -17.4075 23.7375
6932 1 0.0 -15.825 25.32
6933 1 -1.5825 -17.4075 26.9025
6934 3 0.0 -15.825 28.485
6935 4 -1.5825 -17.4075 30.0675
6936 4 0.0 -15.825 31.65
6937 4 0.0 -12.66 -28.485
6938 3 -1.5825 -14.2425 -26.9025
6939 4 0.0 -12.66 -25.32
6940 2 -1.5825 -14.2425 -23.7375
6941 2 0.0 -12.66 -22.155
6942 3 -1.5825 -14.2425 -20.5725
6943 2 0.0 -12.66 -18.99
6944 2 -1.5825 -14.2425 -17.4075
6945 4 0.0 -12.66 -15.825
6946 1 -1.5825 -14.2425 -14.2425
6947 3 0.0 -12.66 -12.66
6948 4 -1.5825 -14.2425 -11.0775
6949 2 0.0 -12.66 -9.495
6950 2 -1.5825 -14.2425 -7.9125
6951 4 0.0 -12.66 -6.33
6952 3 -1.5825 -14.2425 -4.7475
6953 1 0.0 -12.66 -3.165
6954 3 -1.5825 -14.2425 -1.5825
6955 1 0.0 -12.66 0.0
6956 4 -1.5825 -14.2425 1.5825
6957 2 0.0 -12.66 3.165
6958 4 -1.5825 -14.2425 4.7475
6959 3 0.0 -12.66 6.33
6960 3 -1.5825 -14.2425 7.9125
6961 3 0.0 -12.66 9.495
6962 1 -1.5825 -14.2425 11.0775
6963 3 0.0 -12.66 12.66
6964 1 -1.5825 -14.2425 14.2425
6965 4 0.0 -12.66 15.825
6966 3 -1.5825 -14.2425 17.4075
6967 4 0.0 -12.66 18.99
6968 2 -1.5825 -14.2425 20.5725
6969 3 0.0 -12.66 22.155
6970 1 -1.5825 -14.2425 23.7375
6971 4 0.0 -12.66 25.32
6972 2 0.0 -12.66 28.485
6973 1 -1.5825 -14.2425 30.0675
6974 4 0.0 -12.66 31.65
6975 3 -1.5825 -11.0775 -30.0675
6976 4 0.0 -9.495 -28.485
6977 4 -1.5825 -11.0775 -26.9025
6978 2 0.0 -9.495 -25.32
6979 2 -1.5825 -11.0775 -23.7375
6980 3 0.0 -9.495 -22.155
6981 2 0.0 -9.495 -18.99
6982 2 -1.5825 -11.0775 -17.4075
6983 2 0.0 -9.495 -15.825
6984 2 -1.5825 -11.0775 -14.2425
6985 3 0.0 -9.495 -12.66
6986 4 -1.5825 -11.0775 -11.0775
6987 2 0.0 -9.495 -9.495
6988 2 -1.5825 -11.0775 -7.9125
6989 2 0.0 -9.495 -6.33
6990 3 -1.5825 -11.0775 -4.7475
6991 3 0.0 -9.495 -3.165
6992 1 0.0 -9.495 0.0
6993 2 -1.5825 -11.0775 1.5825
6994 4 0.0 -9.495 3.165
6995 2 -1.5825 -11.0775 4.7475
6996 3 -1.5825 -11.0775 7.9125
6997 4 0.0 -9.495 9.495
6998 3 -1.5825 -11.0775 11.0775
6999 3 0.0 -9.495 12.66
7000 1 -1.5825 -11.0775 14.2425
7001 2 0.0 -9.495 15.825
7002 4 -1.5825 -11.0775 17.4075
7003 3 0.0 -9.495 18.99
7004 3 -1.5825 -11.0775 20.5725
7005 2 0.0 -9.495 22.155
7006 4 -1.5825 -11.0775 23.7375
7007 1 0.0 -9.495 25.32
7008 2 0.0 -9.495 28.485
7009 1 -1.5825 -11.0775 30.0675
7010 2 0.0 -9.495 31.65
7011 3 -1.5825 -7.9125 -30.0675
7012 1 0.0 -6.33 -28.485
7013 3 -1.5825 -7.9125 -26.9025
7014 4 0.0 -6.33 -25.32
7015 4 -1.5825 -7.9125 -23.7375
7016 1 0.0 -6.33 -22.155
7017 2 -1.5825 -7.9125 -20.5725
7018 1 0.0 -6.33 -18.99
7019 2 -1.5825 -7.9125 -17.4075
7020 1 0.0 -6.33 -15.825
7021 3 -1.5825 -7.9125 -14.2425
7022 4 0.0 -6.33 -12.66
7023 2 -1.5825 -7.9125 -11.0775
7024 1 0.0 -6.33 -9.495
7025 3 -1.5825 -7.9125 -7.9125
7026 3 0.0 -6.33 -6.33
7027 1 -1.5825 -7.9125 -4.7475
7028 1 0.0 -6.33 -3.165
7029 2 -1.5825 -7.9125 -1.5825
7030 3 0.0 -6.33 0.0
7031 4 -1.5825 -7.9125 1.5825
7032 1 0.0 -6.33 3.165
7033 2 -1.5825 -7.9125 4.7475
7034 1 0.0 -6.33 6.33
7035 2 -1.5825 -7.9125 7.9125
7036 3 0.0 -6.33 9.495
7037 1 -1.5825 -7.9125 11.0775
7038 1 0.0 -6.33 12.66
7039 3 -1.5825 -7.9125 14.2425
7040 3 0.0 -6.33 15.825
7041 1 -1.5825 -7.9125 17.4075
7042 3 0.0 -6.33 18.99
7043 2 -1.5825 -7.9125 20.5725
7044 2 0.0 -6.33 22.155
7045 2 -1.5825 -7.9125 23.7375
7046 3 0.0 -6.33 25.32
7047 1 -1.5825 -7.9125 26.9025
7048 1 0.0 -6.33 28.485
7049 1 -1.5825 -7.9125 30.0675
7050 4 0.0 -6.33 31.65
7051 1 -1.5825 -4.7475 -30.0675
7052 4 0.0 -3.165 -28.485
7053 1 -1.5825 -4.7475 -26.9025
7054 4 0.0 -3.165 -25.32
7055 2 -1.5825 -4.7475 -23.7375
7056 1 0.0 -3.165 -22.155
7057 1 -1.5825 -4.7475 -20.5725
7058 1 0.0 -3.165 -18.99
7059 1 -1.5825 -4.7475 -17.4075
7060 4 0.0 -3.165 -15.825
7061 4 -1.5825 -4.7475 -14.2425
7062 1 0.0 -3.165 -12.66
7063 2 -1.5825 -4.7475 -11.0775
7064 2 0.0 -3.165 -9.495
7065 1 0.0 -3.165 -6.33
7066 3 -1.5825 -4.7475 -4.7475
7067 2 0.0 -3.165 -3.165
7068 2 -1.5825 -4.7475 -1.5825
7069 1 0.0 -3.165 0.0
7070 4 -1.5825 -4.7475 1.5825
7071 4 0.0 -3.165 3.165
7072 4 -1.5825 -4.7475 4.7475
7073 3 0.0 -3.165 6.33
7074 2 -1.5825 -4.7475 7.9125
7075 2 0.0 -3.165 9.495
7076 4 -1.5825 -4.7475 11.0775
7077 1 0.0 -3.165 12.66
7078 2 -1.5825 -4.7475 14.2425
7079 1 0.0 -3.165 15.825
7080 1 -1.5825 -4.7475 17.4075
7081 1 0.0 -3.165 18.99
7082 3 -1.5825 -4.7475 20.5725
7083 1 0.0 -3.165 22.155
7084 2 -1.5825 -4.7475 23.7375
7085 3 0.0 -3.165 25.32
7086 3 -1.5825 -4.7475 26.9025
7087 3 0.0 -3.165 28.485
7088 3 -1.5825 -4.7475 30.0675
7089 2 0.0 -3.165 31.65
7090 4 -1.5825 -1.5825 -30.0675
7091 3 0.0 0.0 -28.485
7092 4 -1.5825 -1.5825 -26.9025
7093 3 0.0 0.0 -25.32
7094 1 -1.5825 -1.5825 -23.7375
7095 3 -1.5825 -1.5825 -20.5725
7096 3 0.0 0.0 -18.99
7097 4 -1.5825 -1.5825 -17.4075
7098 2 0.0 0.0 -15.825
7099 3 -1.5825 -1.5825 -14.2425
7100 1 0.0 0.0 -12.66
7101 1 -1.5825 -1.5825 -11.0775
7102 1 0.0 0.0 -9.495
7103 4 -1.5825 -1.5825 -7.9125
7104 2 -1.5825 -1.5825 -4.7475
7105 4 0.0 0.0 -3.165
7106 4 0.0 0.0 0.0
7107 1 -1.5825 -1.5825 1.5825
7108 3 0.0 0.0 3.165
7109 4 -1.5825 -1.5825 4.7475
7110 3 0.0 0.0 6.33
7111 4 -1.5825 -1.5825 7.9125
7112 4 0.0 0.0 9.495
7113 2 -1.5825 -1.5825 11.0775
7114 3 0.0 0.0 12.66
7115 3 -1.5825 -1.5825 14.2425
7116 4 0.0 0.0 15.825
7117 1 -1.5825 -1.5825 17.4075
7118 4 0.0 0.0 18.99
7119 2 -1.5825 -1.5825 20.5725
7120 1 0.0 0.0 22.155
7121 3 -1.5825 -1.5825 23.7375
7122 4 0.0 0.0 25.32
7123 4 -1.5825 -1.5825 26.9025
7124 4 0.0 0.0 28.485
7125 4 -1.5825 -1.5825 30.0675
7126 3 0.0 0.0 31.65
7127 4 -1.5825 1.5825 -30.0675
7128 4 0.0 3.165 -28.485
7129 3 -1.5825 1.5825 -26.9025
7130 2 0.0 3.165 -25.32
7131 4 0.0 3.165 -22.155
7132 3 -1.5825 1.5825 -20.5725
7133 1 0.0 3.165 -18.99
7134 1 -1.5825 1.5825 -17.4075
7135 2 0.0 3.165 -15.825
7136 1 -1.5825 1.5825 -14.2425
7137 3 0.0 3.165 -12.66
7138 3 -1.5825 1.5825 -11.0775
7139 1 0.0 3.165 -9.495
7140 1 -1.5825 1.5825 -7.9125
7141 3 0.0 3.165 -6.33
7142 2 -1.5825 1.5825 -4.7475
7143 3 0.0 3.165 -3.165
7144 2 -1.5825 1.5825 -1.5825
7145 4 0.0 3.165 0.0
7146 4 -1.5825 1.5825 1.5825
7147 1 0.0 3.165 3.165
7148 4 -1.5825 1.5825 4.7475
7149 4 0.0 3.165 6.33
7150 3 -1.5825 1.5825 7.9125
7151 3 0.0 3.165 9.495
7152 4 -1.5825 1.5825 11.0775
7153 1 0.0 3.165 12.66
7154 4 -1.5825 1.5825 14.2425
7155 2 0.0 3.165 15.825
7156 3 -1.5825 1.5825 17.4075
7157 2 0.0 3.165 18.99
7158 2 -1.5825 1.5825 20.5725
7159 4 0.0 3.165 22.155
7160 2 -1.5825 1.5825 23.7375
7161 2 0.0 3.165 25.32
7162 4 -1.5825 1.5825 26.9025
7163 3 0.0 3.165 28.485
7164 3 -1.5825 1.5825 30.0675
7165 3 0.0 3.165 31.65
7166 1 -1.5825 4.7475 -30.0675
7167 3 0.0 6.33 -28.485
7168 4 -1.5825 4.7475 -26.9025
7169 4 0.0 6.33 -25.32
7170 4 -1.5825 4.7475 -23.7375
7171 2 0.0 6.33 -22.155
7172 3 -1.5825 4.7475 -20.5725
7173 1 0.0 6.33 -18.99
7174 4 -1.5825 4.7475 -17.4075
7175 2 0.0 6.33 -15.825
7176 4 -1.5825 4.7475 -14.2425
7177 1 0.0 6.33 -12.66
7178 4 -1.5825 4.7475 -11.0775
7179 4 -1.5825 4.7475 -7.9125
7180 3 0.0 6.33 -6.33
7181 4 -1.5825 4.7475 -4.7475
7182 1 0.0 6.33 -3.165
7183 1 -1.5825 4.7475 -1.5825
7184 3 0.0 6.33 0.0
7185 2 -1.5825 4.7475 1.5825
7186 3 0.0 6.33 3.165
7187 2 -1.5825 4.7475 4.7475
7188 3 0.0 6.33 6.33
7189 2 -1.5825 4.7475 7.9125
7190 3 0.0 6.33 9.495
7191 4 -1.5825 4.7475 14.2425
7192 3 0.0 6.33 15.825
7193 1 -1.5825 4.7475 17.4075
7194 1 0.0 6.33 18.99
7195 3 -1.5825 4.7475 20.5725
7196 3 0.0 6.33 22.155
7197 3 -1.5825 4.7475 23.7375
7198 3 0.0 6.33 25.32
7199 1 -1.5825 4.7475 26.9025
7200 4 0.0 6.33 28.485
7201 3 -1.5825 4.7475 30.0675
7202 1 0.0 6.33 31.65
7203 1 -1.5825 7.9125 -30.0675
7204 4 0.0 9.495 -28.485
7205 1 -1.5825 7.9125 -26.9025
7206 1 0.0 9.495 -25.32
7207 3 -1.5825 7.9125 -23.7375
7208 4 0.0 9.495 -22.155
7209 3 -1.5825 7.9125 -20.5725
7210 1 0.0 9.495 -18.99
7211 4 -1.5825 7.9125 -17.4075
7212 3 0.0 9.495 -15.825
7213 1 -1.5825 7.9125 -14.2425
7214 3 0.0 9.495 -12.66
7215 2 -1.5825 7.9125 -11.0775
7216 2 0.0 9.495 -9.495
7217 2 -1.5825 7.9125 -7.9125
7218 1 0.0 9.495 -6.33
7219 2 -1.5825 7.9125 -4.7475
7220 2 0.0 9.495 -3.165
7221 4 -1.5825 7.9125 -1.5825
7222 2 0.0 9.495 0.0
7223 4 -1.5825 7.9125 1.5825
7224 3 0.0 9.495 3.165
7225 4 -1.5825 7.9125 4.7475
7226 2 0.0 9.495 6.33
7227 4 -1.5825 7.9125 7.9125
7228 2 0.0 9.495 9.495
7229 4 -1.5825 7.9125 11.0775
7230 2 0.0 9.495 12.66
7231 1 -1.5825 7.9125 14.2425
7232 4 0.0 9.495 15.825
7233 2 -1.5825 7.9125 17.4075
7234 3 0.0 9.495 18.99
7235 1 -1.5825 7.9125 20.5725
7236 1 0.0 9.495 22.155
7237 4 -1.5825 7.9125 23.7375
7238 1 -1.5825 7.9125 26.9025
7239 2 0.0 9.495 28.485
7240 4 -1.5825 7.9125 30.0675
7241 3 0.0 9.495 31.65
7242 4 -1.5825 11.0775 -30.0675
7243 1 0.0 12.66 -28.485
7244 1 -1.5825 11.0775 -26.9025
7245 1 0.0 12.66 -25.32
7246 4 -1.5825 11.0775 -23.7375
7247 4 0.0 12.66 -22.155
7248 3 -1.5825 11.0775 -20.5725
7249 1 0.0 12.66 -18.99
7250 2 -1.5825 11.0775 -17.4075
7251 4 0.0 12.66 -15.825
7252 3 -1.5825 11.0775 -14.2425
7253 4 0.0 12.66 -12.66
7254 1 0.0 12.66 -9.495
7255 4 -1.5825 11.0775 -7.9125
7256 1 0.0 12.66 -6.33
7257 2 -1.5825 11.0775 -4.7475
7258 4 0.0 12.66 -3.165
7259 3 -1.5825 11.0775 -1.5825
7260 1 0.0 12.66 0.0
7261 1 -1.5825 11.0775 1.5825
7262 1 0.0 12.66 3.165
7263 3 -1.5825 11.0775 4.7475
7264 1 0.0 12.66 6.33
7265 1 -1.5825 11.0775 7.9125
7266 1 0.0 12.66 9.495
7267 2 -1.5825 11.0775 11.0775
7268 4 0.0 12.66 12.66
7269 3 -1.5825 11.0775 14.2425
7270 4 0.0 12.66 15.825
7271 1 -1.5825 11.0775 17.4075
7272 2 0.0 12.66 18.99
7273 4 -1.5825 11.0775 20.5725
7274 3 -1.5825 11.0775 23.7375
7275 2 0.0 12.66 25.32
7276 2 -1.5825 11.0775 26.9025
7277 2 0.0 12.66 28.485
7278 4 -1.5825 11.0775 30.0675
7279 2 0.0 12.66 31.65
7280 1 -1.5825 14.2425 -30.0675
7281 4 0.0 15.825 -28.485
7282 4 -1.5825 14.2425 -26.9025
7283 2 -1.5825 14.2425 -23.7375
7284 1 -1.5825 14.2425 -20.5725
7285 3 0.0 15.825 -18.99
7286 4 -1.5825 14.2425 -17.4075
7287 4 0.0 15.825 -15.825
7288 2 -1.5825 14.2425 -14.2425
7289 3 0.0 15.825 -12.66
7290 4 -1.5825 14.2425 -11.0775
7291 3 -1.5825 14.2425 -7.9125
7292 2 0.0 15.825 -6.33
7293 4 -1.5825 14.2425 -4.7475
7294 4 -1.5825 14.2425 -1.5825
7295 4 0.0 15.825 0.0
7296 4 -1.5825 14.2425 1.5825
7297 3 0.0 15.825 3.165
7298 2 -1.5825 14.2425 4.7475
7299 3 0.0 15.825 6.33
7300 4 -1.5825 14.2425 7.9125
7301 2 0.0 15.825 9.495
7302 2 -1.5825 14.2425 11.0775
7303 3 0.0 15.825 12.66
7304 1 -1.5825 14.2425 14.2425
7305 2 -1.5825 14.2425 17.4075
7306 2 0.0 15.825 18.99
7307 1 -1.5825 14.2425 20.5725
7308 3 0.0 15.825 22.155
7309 2 -1.5825 14.2425 23.7375
7310 4 0.0 15.825 25.32
7311 4 -1.5825 14.2425 26.9025
7312 2 0.0 15.825 28.485
7313 2 -1.5825 14.2425 30.0675
7314 1 0.0 15.825 31.65
7315 1 -1.5825 17.4075 -30.0675
7316 1 -1.5825 17.4075 -26.9025
7317 2 0.0 18.99 -25.32
7318 3 -1.5825 17.4075 -23.7375
7319 4 0.0 18.99 -22.155
7320 4 -1.5825 17.4075 -20.5725
7321 3 0.0 18.99 -18.99
7322 4 -1.5825 17.4075 -17.4075
7323 2 0.0 18.99 -15.825
7324 1 0.0 18.99 -12.66
7325 2 -1.5825 17.4075 -11.0775
7326 2 0.0 18.99 -9.495
7327 4 -1.5825 17.4075 -7.9125
7328 3 0.0 18.99 -6.33
7329 4 -1.5825 17.4075 -4.7475
7330 4 0.0 18.99 -3.165
7331 2 -1.5825 17.4075 -1.5825
7332 2 0.0 18.99 0.0
7333 4 -1.5825 17.4075 1.5825
7334 1 0.0 18.99 3.165
7335 3 -1.5825 17.4075 4.7475
7336 2 0.0 18.99 6.33
7337 4 -1.5825 17.4075 7.9125
7338 1 0.0 18.99 9.495
7339 3 -1.5825 17.4075 11.0775
7340 4 -1.5825 17.4075 14.2425
7341 2 0.0 18.99 15.825
7342 3 -1.5825 17.4075 17.4075
7343 3 0.0 18.99 18.99
7344 1 -1.5825 17.4075 20.5725
7345 2 0.0 18.99 22.155
7346 2 -1.5825 17.4075 23.7375
7347 4 -1.5825 17.4075 26.9025
7348 4 0.0 18.99 28.485
7349 2 -1.5825 17.4075 30.0675
7350 3 0.0 18.99 31.65
7351 2 -1.5825 20.5725 -30.0675
7352 3 0.0 22.155 -28.485
7353 1 -1.5825 20.5725 -26.9025
7354 4 0.0 22.155 -25.32
7355 1 -1.5825 20.5725 -23.7375
7356 4 0.0 22.155 -22.155
7357 1 -1.5825 20.5725 -20.5725
7358 3 0.0 22.155 -18.99
7359 3 0.0 22.155 -15.825
7360 1 -1.5825 20.5725 -14.2425
7361 3 0.0 22.155 -12.66
7362 1 -1.5825 20.5725 -11.0775
7363 4 0.0 22.155 -9.495
7364 4 -1.5825 20.5725 -7.9125
7365 3 0.0 22.155 -6.33
7366 4 -1.5825 20.5725 -4.7475
7367 3 0.0 22.155 -3.165
7368 2 -1.5825 20.5725 -1.5825
7369 3 0.0 22.155 0.0
7370 2 -1.5825 20.5725 1.5825
7371 1 0.0 22.155 3.165
7372 1 -1.5825 20.5725 4.7475
7373 1 0.0 22.155 6.33
7374 4 -1.5825 20.5725 7.9125
7375 1 0.0 22.155 9.495
7376 2 -1.5825 20.5725 11.0775
7377 1 0.0 22.155 12.66
7378 3 -1.5825 20.5725 14.2425
7379 4 0.0 22.155 15.825
7380 3 -1.5825 20.5725 17.4075
7381 2 0.0 22.155 18.99
7382 4 -1.5825 20.5725 20.5725
7383 3 0.0 22.155 22.155
7384 1 -1.5825 20.5725 23.7375
7385 2 0.0 22.155 25.32
7386 2 -1.5825 20.5725 26.9025
7387 3 -1.5825 20.5725 30.0675
7388 2 0.0 22.155 31.65
7389 1 -1.5825 23.7375 -30.0675
7390 3 0.0 25.32 -28.485
7391 1 -1.5825 23.7375 -26.9025
7392 1 0.0 25.32 -25.32
7393 1 -1.5825 23.7375 -23.7375
7394 1 0.0 25.32 -22.155
7395 1 -1.5825 23.7375 -20.5725
7396 3 0.0 25.32 -18.99
7397 1 -1.5825 23.7375 -17.4075
7398 1 0.0 25.32 -15.825
7399 4 -1.5825 23.7375 -14.2425
7400 2 0.0 25.32 -12.66
7401 4 -1.5825 23.7375 -11.0775
7402 4 0.0 25.32 -9.495
7403 3 -1.5825 23.7375 -7.9125
7404 4 0.0 25.32 -6.33
7405 4 -1.5825 23.7375 -4.7475
7406 1 0.0 25.32 -3.165
7407 4 -1.5825 23.7375 -1.5825
7408 1 0.0 25.32 0.0
7409 1 -1.5825 23.7375 1.5825
7410 1 0.0 25.32 3.165
7411 1 0.0 25.32 6.33
7412 2 -1.5825 23.7375 7.9125
7413 2 0.0 25.32 9.495
7414 1 -1.5825 23.7375 11.0775
7415 4 0.0 25.32 12.66
7416 2 -1.5825 23.7375 14.2425
7417 4 0.0 25.32 15.825
7418 1 -1.5825 23.7375 17.4075
7419 1 0.0 25.32 18.99
7420 4 -1.5825 23.7375 20.5725
7421 2 0.0 25.32 22.155
7422 4 -1.5825 23.7375 23.7375
7423 1 0.0 25.32 25.32
7424 1 -1.5825 23.7375 26.9025
7425 2 0.0 25.32 28.485
7426 4 -1.5825 23.7375 30.0675
7427 1 0.0 25.32 31.65
7428 1 -1.5825 26.9025 -30.0675
7429 3 0.0 28.485 -28.485
7430 2 -1.5825 26.9025 -26.9025
7431 1 0.0 28.485 -25.32
7432 3 -1.5825 26.9025 -23.7375
7433 3 0.0 28.485 -22.155
7434 3 -1.5825 26.9025 -20.5725
7435 1 0.0 28.485 -18.99
7436 2 -1.5825 26.9025 -17.4075
7437 1 0.0 28.485 -15.825
7438 4 -1.5825 26.9025 -14.2425
7439 4 0.0 28.485 -12.66
7440 4 -1.5825 26.9025 -11.0775
7441 3 0.0 28.485 -9.495
7442 3 -1.5825 26.9025 -7.9125
7443 3 0.0 28.485 -6.33
7444 1 -1.5825 26.9025 -4.7475
7445 3 0.0 28.485 -3.165
7446 3 -1.5825 26.9025 -1.5825
7447 4 0.0 28.485 0.0
7448 4 -1.5825 26.9025 1.5825
7449 1 0.0 28.485 3.165
7450 3 -1.5825 26.9025 4.7475
7451 1 0.0 28.485 6.33
7452 1 -1.5825 26.9025 7.9125
7453 3 0.0 28.485 9.495
7454 4 -1.5825 26.9025 11.0775
7455 1 0.0 28.485 12.66
7456 3 -1.5825 26.9025 14.2425
7457 3 0.0 28.485 15.825
7458 1 -1.5825 26.9025 17.4075
7459 1 0.0 28.485 18.99
7460 3 -1.5825 26.9025 20.5725
7461 4 0.0 28.485 22.155
7462 1 -1.5825 26.9025 23.7375
7463 4 0.0 28.485 25.32
7464 4 -1.5825 26.9025 26.9025
7465 1 0.0 28.485 28.485
7466 2 -1.5825 26.9025 30.0675
7467 3 0.0 28.485 31.65
7468 3 -1.5825 30.0675 -30.0675
7469 4 0.0 31.65 -28.485
7470 1 -1.5825 30.0675 -26.9025
7471 1 0.0 31.65 -25.32
7472 3 -1.5825 30.0675 -23.7375
7473 4 0.0 31.65 -22.155
7474 1 -1.5825 30.0675 -20.5725
7475 3 0.0 31.65 -18.99
7476 3 -1.5825 30.0675 -17.4075
7477 2 0.0 31.65 -15.825
7478 4 -1.5825 30.0675 -14.2425
7479 4 0.0 31.65 -12.66
7480 4 -1.5825 30.0675 -11.0775
7481 2 0.0 31.65 -9.495
7482 3 -1.5825 30.0675 -7.9125
7483 2 0.0 31.65 -6.33
7484 4 -1.5825 30.0675 -4.7475
7485 1 0.0 31.65 -3.165
7486 1 -1.5825 30.0675 -1.5825
7487 4 -1.5825 30.0675 1.5825
7488 2 0.0 31.65 3.165
7489 2 -1.5825 30.0675 4.7475
7490 1 0.0 31.65 6.33
7491 3 -1.5825 30.0675 7.9125
7492 1 0.0 31.65 9.495
7493 1 -1.5825 30.0675 11.0775
7494 4 0.0 31.65 12.66
7495 3 -1.5825 30.0675 14.2425
7496 3 0.0 31.65 15.825
7497 4 -1.5825 30.0675 17.4075
7498 3 0.0 31.65 18.99
7499 3 -1.5825 30.0675 20.5725
7500 2 0.0 31.65 22.155
7501 4 -1.5825 30.0675 23.7375
7502 1 0.0 31.65 25.32
7503 4 -1.5825 30.0675 26.9025
7504 2 0.0 31.65 28.485
7505 3 -1.5825 30.0675 30.0675
7506 3 0.0 31.65 31.65
7507 2 1.5825 -30.0675 -30.0675
7508 1 3.165 -28.485 -28.485
7509 4 1.5825 -30.0675 -26.9025
7510 3 3.165 -28.485 -25.32
7511 1 1.5825 -30.0675 -23.7375
7512 3 3.165 -28.485 -22.155
7513 4 1.5825 -30.0675 -20.5725
7514 3 3.165 -28.485 -18.99
7515 4 1.5825 -30.0675 -17.4075
7516 4 3.165 -28.485 -15.825
7517 4 1.5825 -30.0675 -14.2425
7518 4 1.5825 -30.0675 -11.0775
7519 4 3.165 -28.485 -9.495
7520 3 3.165 -28.485 -6.33
7521 1 1.5825 -30.0675 -4.7475
7522 2 3.165 -28.485 -3.165
7523 2 1.5825 -30.0675 -1.5825
7524 1 3.165 -28.485 0.0
7525 2 1.5825 -30.0675 1.5825
7526 4 3.165 -28.485 3.165
7527 4 1.5825 -30.0675 4.7475
7528 3 3.165 -28.485 6.33
7529 1 1.5825 -30.0675 7.9125
7530 3 3.165 -28.485 9.495
7531 3 1.5825 -30.0675 11.0775
7532 3 3.165 -28.485 12.66
7533 3 1.5825 -30.0675 14.2425
7534 2 3.165 -28.485 15.825
7535 1 1.5825 -30.0675 17.4075
7536 2 3.165 -28.485 18.99
7537 2 3.165 -28.485 22.155
7538 1 1.5825 -30.0675 23.7375
7539 4 3.165 -28.485 25.32
7540 4 1.5825 -30.0675 26.9025
7541 4 3.165 -28.485 28.485
7542 2 1.5825 -30.0675 30.0675
7543 2 3.165 -28.485 31.65
7544 3 1.5825 -26.9025 -30.0675
7545 2 3.165 -25.32 -28.485
7546 2 1.5825 -26.9025 -26.9025
7547 2 3.165 -25.32 -25.32
7548 3 1.5825 -26.9025 -23.7375
7549 4 3.165 -25.32 -22.155
7550 3 1.5825 -26.9025 -20.5725
7551 3 3.165 -25.32 -18.99
7552 4 1.5825 -26.9025 -17.4075
7553 4 3.165 -25.32 -15.825
7554 1 1.5825 -26.9025 -14.2425
7555 1 3.165 -25.32 -12.66
7556 1 1.5825 -26.9025 -11.0775
7557 2 3.165 -25.32 -9.495
7558 1 1.5825 -26.9025 -7.9125
7559 3 3.165 -25.32 -6.33
7560 1 1.5825 -26.9025 -4.7475
7561 1 3.165 -25.32 -3.165
7562 4 1.5825 -26.9025 -1.5825
7563 4 3.165 -25.32 0.0
7564 1 1.5825 -26.9025 1.5825
7565 2 1.5825 -26.9025 4.7475
7566 2 3.165 -25.32 6.33
7567 2 1.5825 -26.9025 7.9125
7568 2 3.165 -25.32 9.495
7569 2 1.5825 -26.9025 11.0775
7570 2 3.165 -25.32 12.66
7571 1 1.5825 -26.9025 14.2425
7572 1 3.165 -25.32 15.825
7573 1 1.5825 -26.9025 17.4075
7574 3 3.165 -25.32 18.99
7575 2 1.5825 -26.9025 20.5725
7576 3 3.165 -25.32 22.155
7577 2 1.5825 -26.9025 23.7375
7578 4 3.165 -25.32 25.32
7579 1 1.5825 -26.9025 26.9025
7580 2 3.165 -25.32 28.485
7581 4 1.5825 -26.9025 30.0675
7582 4 3.165 -25.32 31.65
7583 3 1.5825 -23.7375 -30.0675
7584 1 3.165 -22.155 -28.485
7585 4 1.5825 -23.7375 -26.9025
7586 2 3.165 -22.155 -25.32
7587 3 1.5825 -23.7375 -23.7375
7588 2 3.165 -22.155 -22.155
7589 4 1.5825 -23.7375 -20.5725
7590 2 1.5825 -23.7375 -17.4075
7591 2 3.165 -22.155 -15.825
7592 1 1.5825 -23.7375 -14.2425
7593 2 3.165 -22.155 -12.66
7594 3 1.5825 -23.7375 -11.0775
7595 1 3.165 -22.155 -9.495
7596 2 1.5825 -23.7375 -7.9125
7597 3 3.165 -22.155 -6.33
7598 3 3.165 -22.155 -3.165
7599 3 1.5825 -23.7375 -1.5825
7600 4 3.165 -22.155 0.0
7601 4 1.5825 -23.7375 1.5825
7602 1 3.165 -22.155 3.165
7603 1 1.5825 -23.7375 4.7475
7604 2 3.165 -22.155 6.33
7605 4 1.5825 -23.7375 7.9125
7606 2 3.165 -22.155 9.495
7607 1 1.5825 -23.7375 11.0775
7608 1 3.165 -22.155 12.66
7609 4 1.5825 -23.7375 14.2425
7610 4 3.165 -22.155 15.825
7611 3 1.5825 -23.7375 17.4075
7612 1 3.165 -22.155 18.99
7613 3 1.5825 -23.7375 20.5725
7614 1 3.165 -22.155 22.155
7615 2 3.165 -22.155 25.32
7616 4 1.5825 -23.7375 26.9025
7617 2 3.165 -22.155 28.485
7618 4 1.5825 -23.7375 30.0675
7619 1 3.165 -22.155 31.65
7620 3 1.5825 -20.5725 -30.0675
7621 1 3.165 -18.99 -28.485
7622 4 1.5825 -20.5725 -26.9025
7623 2 3.165 -18.99 -25.32
7624 4 1.5825 -20.5725 -23.7375
7625 1 3.165 -18.99 -22.155
7626 3 1.5825 -20.5725 -20.5725
7627 4 1.5825 -20.5725 -17.4075
7628 1 3.165 -18.99 -15.825
7629 3 1.5825 -20.5725 -14.2425
7630 3 3.165 -18.99 -12.66
7631 2 1.5825 -20.5725 -11.0775
7632 1 3.165 -18.99 -9.495
7633 3 1.5825 -20.5725 -7.9125
7634 3 3.165 -18.99 -6.33
7635 4 1.5825 -20.5725 -4.7475
7636 4 3.165 -18.99 -3.165
7637 2 1.5825 -20.5725 -1.5825
7638 3 3.165 -18.99 0.0
7639 2 1.5825 -20.5725 1.5825
7640 2 3.165 -18.99 3.165
7641 1 1.5825 -20.5725 4.7475
7642 4 3.165 -18.99 6.33
7643 2 1.5825 -20.5725 7.9125
7644 2 3.165 -18.99 9.495
7645 3 1.5825 -20.5725 11.0775
7646 1 3.165 -18.99 12.66
7647 4 3.165 -18.99 15.825
7648 1 1.5825 -20.5725 17.4075
7649 3 3.165 -18.99 18.99
7650 4 1.5825 -20.5725 20.5725
7651 4 3.165 -18.99 22.155
7652 3 1.5825 -20.5725 23.7375
7653 4 3.165 -18.99 25.32
7654 1 1.5825 -20.5725 26.9025
7655 1 3.165 -18.99 28.485
7656 2 1.5825 -20.5725 30.0675
7657 1 3.165 -18.99 31.65
7658 3 1.5825 -17.4075 -30.0675
7659 4 3.165 -15.825 -28.485
7660 1 3.165 -15.825 -25.32
7661 3 1.5825 -17.4075 -23.7375
7662 4 3.165 -15.825 -22.155
7663 4 1.5825 -17.4075 -20.5725
7664 4 3.165 -15.825 -18.99
7665 4 1.5825 -17.4075 -17.4075
7666 4 1.5825 -17.4075 -14.2425
7667 3 3.165 -15.825 -12.66
7668 2 1.5825 -17.4075 -11.0775
7669 1 3.165 -15.825 -9.495
7670 4 1.5825 -17.4075 -7.9125
7671 4 3.165 -15.825 -6.33
7672 2 1.5825 -17.4075 -4.7475
7673 3 3.165 -15.825 -3.165
7674 3 1.5825 -17.4075 -1.5825
7675 2 3.165 -15.825 0.0
7676 1 1.5825 -17.4075 1.5825
7677 3 3.165 -15.825 3.165
7678 4 1.5825 -17.4075 4.7475
7679 4 3.165 -15.825 6.33
7680 2 3.165 -15.825 9.495
7681 4 1.5825 -17.4075 11.0775
7682 1 3.165 -15.825 12.66
7683 2 1.5825 -17.4075 14.2425
7684 1 3.165 -15.825 15.825
7685 3 1.5825 -17.4075 17.4075
7686 4 3.165 -15.825 18.99
7687 1 1.5825 -17.4075 20.5725
7688 1 1.5825 -17.4075 23.7375
7689 2 3.165 -15.825 25.32
7690 4 1.5825 -17.4075 26.9025
7691 1 3.165 -15.825 28.485
7692 1 1.5825 -17.4075 30.0675
7693 3 3.165 -15.825 31.65
7694 1 1.5825 -14.2425 -30.0675
7695 4 3.165 -12.66 -28.485
7696 3 1.5825 -14.2425 -26.9025
7697 1 3.165 -12.66 -25.32
7698 2 1.5825 -14.2425 -23.7375
7699 4 3.165 -12.66 -22.155
7700 4 1.5825 -14.2425 -20.5725
7701 4 3.165 -12.66 -18.99
7702 2 1.5825 -14.2425 -17.4075
7703 4 3.165 -12.66 -15.825
7704 1 1.5825 -14.2425 -14.2425
7705 2 3.165 -12.66 -12.66
7706 2 1.5825 -14.2425 -11.0775
7707 1 3.165 -12.66 -9.495
7708 1 1.5825 -14.2425 -7.9125
7709 4 3.165 -12.66 -6.33
7710 2 1.5825 -14.2425 -4.7475
7711 2 3.165 -12.66 0.0
7712 3 1.5825 -14.2425 1.5825
7713 4 3.165 -12.66 3.165
7714 2 1.5825 -14.2425 4.7475
7715 1 3.165 -12.66 6.33
7716 3 1.5825 -14.2425 7.9125
7717 2 3.165 -12.66 9.495
7718 4 3.165 -12.66 12.66
7719 3 1.5825 -14.2425 14.2425
7720 3 3.165 -12.66 15.825
7721 1 1.5825 -14.2425 17.4075
7722 1 3.165 -12.66 18.99
7723 1 1.5825 -14.2425 20.5725
7724 4 3.165 -12.66 22.155
7725 1 1.5825 -14.2425 23.7375
7726 2 3.165 -12.66 25.32
7727 3 1.5825 -14.2425 26.9025
7728 2 3.165 -12.66 28.485
7729 4 1.5825 -14.2425 30.0675
7730 4 3.165 -12.66 31.65
7731 4 1.5825 -11.0775 -30.0675
7732 1 3.165 -9.495 -28.485
7733 2 1.5825 -11.0775 -26.9025
7734 3 3.165 -9.495 -25.32
7735 3 1.5825 -11.0775 -23.7375
7736 4 3.165 -9.495 -22.155
7737 4 3.165 -9.495 -18.99
7738 1 1.5825 -11.0775 -17.4075
7739 2 3.165 -9.495 -15.825
7740 3 1.5825 -11.0775 -14.2425
7741 4 3.165 -9.495 -12.66
7742 2 1.5825 -11.0775 -11.0775
7743 4 3.165 -9.495 -9.495
7744 4 1.5825 -11.0775 -7.9125
7745 1 3.165 -9.495 -6.33
7746 3 1.5825 -11.0775 -4.7475
7747 1 3.165 -9.495 -3.165
7748 3 1.5825 -11.0775 -1.5825
7749 4 3.165 -9.495 0.0
7750 3 1.5825 -11.0775 1.5825
7751 3 3.165 -9.495 3.165
7752 3 1.5825 -11.0775 4.7475
7753 2 3.165 -9.495 6.33
7754 3 1.5825 -11.0775 7.9125
7755 3 1.5825 -11.0775 11.0775
7756 4 3.165 -9.495 12.66
7757 4 1.5825 -11.0775 14.2425
7758 4 3.165 -9.495 15.825
7759 2 1.5825 -11.0775 17.4075
7760 3 3.165 -9.495 18.99
7761 4 1.5825 -11.0775 20.5725
7762 4 3.165 -9.495 22.155
7763 1 1.5825 -11.0775 23.7375
7764 1 3.165 -9.495 25.32
7765 3 1.5825 -11.0775 26.9025
7766 3 3.165 -9.495 28.485
7767 4 1.5825 -11.0775 30.0675
7768 4 3.165 -9.495 31.65
7769 1 1.5825 -7.9125 -30.0675
7770 3 3.165 -6.33 -28.485
7771 4 1.5825 -7.9125 -26.9025
7772 4 3.165 -6.33 -25.32
7773 3 1.5825 -7.9125 -23.7375
7774 3 3.165 -6.33 -22.155
7775 3 3.165 -6.33 -18.99
7776 1 1.5825 -7.9125 -17.4075
7777 1 3.165 -6.33 -15.825
7778 2 1.5825 -7.9125 -14.2425
7779 4 3.165 -6.33 -12.66
7780 4 1.5825 -7.9125 -11.0775
7781 4 3.165 -6.33 -9.495
7782 2 1.5825 -7.9125 -7.9125
7783 2 3.165 -6.33 -6.33
7784 2 1.5825 -7.9125 -4.7475
7785 1 3.165 -6.33 -3.165
7786 1 1.5825 -7.9125 -1.5825
7787 2 3.165 -6.33 0.0
7788 1 1.5825 -7.9125 1.5825
7789 3 3.165 -6.33 3.165
7790 3 1.5825 -7.9125 4.7475
7791 3 3.165 -6.33 6.33
7792 3 1.5825 -7.9125 7.9125
7793 2 3.165 -6.33 9.495
7794 1 1.5825 -7.9125 11.0775
7795 1 3.165 -6.33 12.66
7796 1 1.5825 -7.9125 14.2425
7797 3 3.165 -6.33 15.825
7798 2 1.5825 -7.9125 17.4075
7799 1 3.165 -6.33 18.99
7800 4 1.5825 -7.9125 20.5725
7801 4 3.165 -6.33 22.155
7802 3 1.5825 -7.9125 23.7375
7803 2 3.165 -6.33 25.32
7804 1 1.5825 -7.9125 26.9025
7805 1 3.165 -6.33 28.485
7806 3 1.5825 -7.9125 30.0675
7807 2 3.165 -6.33 31.65
7808 3 1.5825 -4.7475 -30.0675
7809 2 3.165 -3.165 -28.485
7810 2 1.5825 -4.7475 -26.9025
7811 1 3.165 -3.165 -25.32
7812 3 1.5825 -4.7475 -23.7375
7813 4 3.165 -3.165 -22.155
7814 1 1.5825 -4.7475 -20.5725
7815 4 3.165 -3.165 -18.99
7816 3 1.5825 -4.7475 -17.4075
7817 4 3.165 -3.165 -15.825
7818 1 1.5825 -4.7475 -14.2425
7819 2 3.165 -3.165 -12.66
7820 3 1.5825 -4.7475 -11.0775
7821 1 3.165 -3.165 -9.495
7822 1 1.5825 -4.7475 -7.9125
7823 2 3.165 -3.165 -6.33
7824 1 1.5825 -4.7475 -4.7475
7825 1 3.165 -3.165 -3.165
7826 3 1.5825 -4.7475 -1.5825
7827 1 3.165 -3.165 0.0
7828 4 1.5825 -4.7475 1.5825
7829 1 3.165 -3.165 3.165
7830 3 1.5825 -4.7475 4.7475
7831 1 3.165 -3.165 6.33
7832 4 1.5825 -4.7475 7.9125
7833 3 3.165 -3.165 9.495
7834 1 3.165 -3.165 12.66
7835 3 1.5825 -4.7475 14.2425
7836 3 3.165 -3.165 15.825
7837 3 1.5825 -4.7475 20.5725
7838 2 3.165 -3.165 22.155
7839 3 3.165 -3.165 25.32
7840 1 1.5825 -4.7475 26.9025
7841 3 3.165 -3.165 28.485
7842 1 1.5825 -4.7475 30.0675
7843 1 3.165 -3.165 31.65
7844 1 1.5825 -1.5825 -30.0675
7845 1 3.165 0.0 -28.485
7846 1 1.5825 -1.5825 -26.9025
7847 3 3.165 0.0 -25.32
7848 1 1.5825 -1.5825 -23.7375
7849 1 3.165 0.0 -22.155
7850 4 1.5825 -1.5825 -20.5725
7851 4 3.165 0.0 -18.99
7852 2 1.5825 -1.5825 -17.4075
7853 3 3.165 0.0 -15.825
7854 3 1.5825 -1.5825 -14.2425
7855 3 3.165 0.0 -12.66
7856 1 1.5825 -1.5825 -11.0775
7857 4 3.165 0.0 -9.495
7858 4 1.5825 -1.5825 -7.9125
7859 4 3.165 0.0 -6.33
7860 3 1.5825 -1.5825 -4.7475
7861 1 3.165 0.0 -3.165
7862 2 1.5825 -1.5825 -1.5825
7863 2 3.165 0.0 0.0
7864 4 1.5825 -1.5825 1.5825
7865 2 3.165 0.0 3.165
7866 4 1.5825 -1.5825 4.7475
7867 4 3.165 0.0 6.33
7868 2 1.5825 -1.5825 7.9125
7869 1 3.165 0.0 9.495
7870 3 1.5825 -1.5825 11.0775
7871 2 3.165 0.0 12.66
7872 4 3.165 0.0 15.825
7873 2 1.5825 -1.5825 17.4075
7874 3 3.165 0.0 18.99
7875 4 1.5825 -1.5825 20.5725
7876 2 3.165 0.0 22.155
7877 2 1.5825 -1.5825 23.7375
7878 3 3.165 0.0 25.32
7879 1 1.5825 -1.5825 26.9025
7880 2 3.165 0.0 28.485
7881 3 1.5825 -1.5825 30.0675
7882 4 3.165 0.0 31.65
7883 4 1.5825 1.5825 -30.0675
7884 1 3.165 3.165 -28.485
7885 1 1.5825 1.5825 -26.9025
7886 3 3.165 3.165 -25.32
7887 2 1.5825 1.5825 -23.7375
7888 3 3.165 3.165 -22.155
7889 4 1.5825 1.5825 -20.5725
7890 1 3.165 3.165 -18.99
7891 4 1.5825 1.5825 -17.4075
7892 4 3.165 3.165 -15.825
7893 2 1.5825 1.5825 -14.2425
7894 4 1.5825 1.5825 -11.0775
7895 1 3.165 3.165 -9.495
7896 1 1.5825 1.5825 -7.9125
7897 2 3.165 3.165 -6.33
7898 3 1.5825 1.5825 -4.7475
7899 2 3.165 3.165 -3.165
7900 4 3.165 3.165 0.0
7901 4 1.5825 1.5825 1.5825
7902 1 3.165 3.165 3.165
7903 2 1.5825 1.5825 4.7475
7904 4 3.165 3.165 6.33
7905 3 1.5825 1.5825 7.9125
7906 4 3.165 3.165 9.495
7907 1 1.5825 1.5825 11.0775
7908 1 3.165 3.165 12.66
7909 3 1.5825 1.5825 14.2425
7910 4 3.165 3.165 15.825
7911 1 1.5825 1.5825 17.4075
7912 1 3.165 3.165 18.99
7913 4 1.5825 1.5825 20.5725
7914 2 3.165 3.165 22.155
7915 1 1.5825 1.5825 23.7375
7916 4 3.165 3.165 25.32
7917 2 1.5825 1.5825 26.9025
7918 4 3.165 3.165 28.485
7919 2 1.5825 1.5825 30.0675
7920 4 3.165 3.165 31.65
7921 4 1.5825 4.7475 -30.0675
7922 1 3.165 6.33 -28.485
7923 3 1.5825 4.7475 -26.9025
7924 4 3.165 6.33 -25.32
7925 2 1.5825 4.7475 -23.7375
7926 4 3.165 6.33 -22.155
7927 4 1.5825 4.7475 -20.5725
7928 2 1.5825 4.7475 -17.4075
7929 3 3.165 6.33 -15.825
7930 4 1.5825 4.7475 -14.2425
7931 2 3.165 6.33 -12.66
7932 3 3.165 6.33 -9.495
7933 2 1.5825 4.7475 -7.9125
7934 1 3.165 6.33 -6.33
7935 2 1.5825 4.7475 -4.7475
7936 4 3.165 6.33 -3.165
7937 3 1.5825 4.7475 -1.5825
7938 2 3.165 6.33 0.0
7939 2 1.5825 4.7475 1.5825
7940 1 3.165 6.33 3.165
7941 3 1.5825 4.7475 4.7475
7942 3 3.165 6.33 6.33
7943 3 1.5825 4.7475 7.9125
7944 4 3.165 6.33 9.495
7945 3 1.5825 4.7475 11.0775
7946 3 3.165 6.33 12.66
7947 3 1.5825 4.7475 14.2425
7948 2 3.165 6.33 15.825
7949 1 1.5825 4.7475 17.4075
7950 4 3.165 6.33 18.99
7951 1 1.5825 4.7475 20.5725
7952 1 3.165 6.33 22.155
7953 4 1.5825 4.7475 23.7375
7954 2 1.5825 4.7475 26.9025
7955 2 3.165 6.33 28.485
7956 2 1.5825 4.7475 30.0675
7957 4 3.165 6.33 31.65
7958 1 1.5825 7.9125 -30.0675
7959 2 3.165 9.495 -28.485
7960 2 1.5825 7.9125 -26.9025
7961 3 3.165 9.495 -25.32
7962 3 1.5825 7.9125 -23.7375
7963 2 3.165 9.495 -22.155
7964 2 1.5825 7.9125 -20.5725
7965 4 3.165 9.495 -18.99
7966 2 1.5825 7.9125 -17.4075
7967 2 3.165 9.495 -15.825
7968 4 1.5825 7.9125 -14.2425
7969 1 3.165 9.495 -12.66
7970 4 1.5825 7.9125 -11.0775
7971 2 3.165 9.495 -9.495
7972 3 1.5825 7.9125 -7.9125
7973 2 3.165 9.495 -6.33
7974 2 1.5825 7.9125 -4.7475
7975 3 3.165 9.495 -3.165
7976 1 1.5825 7.9125 -1.5825
7977 4 1.5825 7.9125 1.5825
7978 4 3.165 9.495 3.165
7979 2 1.5825 7.9125 4.7475
7980 3 3.165 9.495 6.33
7981 2 1.5825 7.9125 7.9125
7982 1 3.165 9.495 9.495
7983 1 1.5825 7.9125 11.0775
7984 4 3.165 9.495 12.66
7985 2 1.5825 7.9125 14.2425
7986 2 3.165 9.495 15.825
7987 4 1.5825 7.9125 17.4075
7988 1 3.165 9.495 18.99
7989 4 1.5825 7.9125 20.5725
7990 4 3.165 9.495 22.155
7991 2 1.5825 7.9125 23.7375
7992 1 3.165 9.495 25.32
7993 4 1.5825 7.9125 26.9025
7994 1 3.165 9.495 28.485
7995 1 1.5825 7.9125 30.0675
7996 3 3.165 9.495 31.65
7997 2 1.5825 11.0775 -30.0675
7998 2 3.165 12.66 -28.485
7999 3 1.5825 11.0775 -26.9025
8000 1 3.165 12.66 -25.32
8001 2 1.5825 11.0775 -23.7375
8002 1 3.165 12.66 -22.155
8003 2 1.5825 11.0775 -20.5725
8004 4 3.165 12.66 -18.99
8005 1 1.5825 11.0775 -17.4075
8006 1 3.165 12.66 -15.825
8007 2 1.5825 11.0775 -14.2425
8008 3 3.165 12.66 -12.66
8009 2 1.5825 11.0775 -11.0775
8010 3 3.165 12.66 -9.495
8011 2 1.5825 11.0775 -7.9125
8012 2 3.165 12.66 -6.33
8013 3 1.5825 11.0775 -4.7475
8014 2 3.165 12.66 -3.165
8015 3 1.5825 11.0775 -1.5825
8016 2 3.165 12.66 0.0
8017 3 1.5825 11.0775 1.5825
8018 4 1.5825 11.0775 4.7475
8019 2 3.165 12.66 6.33
8020 2 1.5825 11.0775 7.9125
8021 4 1.5825 11.0775 11.0775
8022 3 3.165 12.66 12.66
8023 3 1.5825 11.0775 14.2425
8024 3 3.165 12.66 15.825
8025 2 1.5825 11.0775 17.4075
8026 1 3.165 12.66 18.99
8027 3 1.5825 11.0775 20.5725
8028 1 1.5825 11.0775 23.7375
8029 3 3.165 12.66 25.32
8030 2 1.5825 11.0775 26.9025
8031 2 3.165 12.66 28.485
8032 2 1.5825 11.0775 30.0675
8033 2 3.165 12.66 31.65
8034 4 1.5825 14.2425 -30.0675
8035 2 3.165 15.825 -28.485
8036 3 1.5825 14.2425 -26.9025
8037 3 3.165 15.825 -25.32
8038 2 3.165 15.825 -22.155
8039 4 1.5825 14.2425 -20.5725
8040 2 3.165 15.825 -18.99
8041 4 1.5825 14.2425 -17.4075
8042 4 3.165 15.825 -15.825
8043 1 1.5825 14.2425 -14.2425
8044 4 3.165 15.825 -12.66
8045 2 1.5825 14.2425 -11.0775
8046 1 3.165 15.825 -9.495
8047 2 1.5825 14.2425 -7.9125
8048 1 3.165 15.825 -6.33
8049 4 1.5825 14.2425 -4.7475
8050 4 3.165 15.825 -3.165
8051 3 1.5825 14.2425 -1.5825
8052 3 3.165 15.825 0.0
8053 2 1.5825 14.2425 1.5825
8054 1 3.165 15.825 3.165
8055 3 1.5825 14.2425 4.7475
8056 4 3.165 15.825 6.33
8057 4 1.5825 14.2425 7.9125
8058 1 3.165 15.825 9.495
8059 4 1.5825 14.2425 11.0775
8060 4 3.165 15.825 12.66
8061 1 1.5825 14.2425 14.2425
8062 1 3.165 15.825 15.825
8063 4 1.5825 14.2425 17.4075
8064 2 3.165 15.825 18.99
8065 1 1.5825 14.2425 20.5725
8066 3 3.165 15.825 22.155
8067 1 1.5825 14.2425 23.7375
8068 2 3.165 15.825 25.32
8069 3 1.5825 14.2425 26.9025
8070 1 3.165 15.825 28.485
8071 4 3.165 15.825 31.65
8072 1 1.5825 17.4075 -30.0675
8073 1 3.165 18.99 -28.485
8074 4 1.5825 17.4075 -26.9025
8075 1 3.165 18.99 -25.32
8076 4 1.5825 17.4075 -23.7375
8077 1 3.165 18.99 -22.155
8078 2 1.5825 17.4075 -20.5725
8079 4 1.5825 17.4075 -17.4075
8080 1 3.165 18.99 -15.825
8081 3 1.5825 17.4075 -14.2425
8082 1 3.165 18.99 -12.66
8083 2 1.5825 17.4075 -11.0775
8084 4 3.165 18.99 -9.495
8085 4 1.5825 17.4075 -7.9125
8086 1 3.165 18.99 -6.33
8087 1 1.5825 17.4075 -4.7475
8088 1 3.165 18.99 -3.165
8089 1 1.5825 17.4075 -1.5825
8090 3 3.165 18.99 0.0
8091 1 1.5825 17.4075 1.5825
8092 2 3.165 18.99 3.165
8093 3 1.5825 17.4075 4.7475
8094 2 3.165 18.99 6.33
8095 2 1.5825 17.4075 7.9125
8096 1 3.165 18.99 9.495
8097 2 1.5825 17.4075 11.0775
8098 1 1.5825 17.4075 14.2425
8099 1 3.165 18.99 15.825
8100 1 1.5825 17.4075 17.4075
8101 4 3.165 18.99 18.99
8102 4 1.5825 17.4075 20.5725
8103 3 3.165 18.99 22.155
8104 3 1.5825 17.4075 23.7375
8105 1 3.165 18.99 25.32
8106 3 1.5825 17.4075 26.9025
8107 4 3.165 18.99 28.485
8108 3 1.5825 17.4075 30.0675
8109 1 3.165 18.99 31.65
8110 4 1.5825 20.5725 -30.0675
8111 1 3.165 22.155 -28.485
8112 2 1.5825 20.5725 -26.9025
8113 3 3.165 22.155 -25.32
8114 1 1.5825 20.5725 -23.7375
8115 2 3.165 22.155 -22.155
8116 2 3.165 22.155 -18.99
8117 4 1.5825 20.5725 -17.4075
8118 2 3.165 22.155 -15.825
8119 4 1.5825 20.5725 -14.2425
8120 2 3.165 22.155 -12.66
8121 1 3.165 22.155 -9.495
8122 2 1.5825 20.5725 -7.9125
8123 4 3.165 22.155 -6.33
8124 1 1.5825 20.5725 -4.7475
8125 2 3.165 22.155 -3.165
8126 2 1.5825 20.5725 -1.5825
8127 3 3.165 22.155 0.0
8128 4 1.5825 20.5725 1.5825
8129 1 3.165 22.155 3.165
8130 4 1.5825 20.5725 4.7475
8131 4 3.165 22.155 6.33
8132 3 1.5825 20.5725 7.9125
8133 3 3.165 22.155 9.495
8134 1 1.5825 20.5725 11.0775
8135 1 3.165 22.155 12.66
8136 2 1.5825 20.5725 14.2425
8137 4 3.165 22.155 15.825
8138 2 1.5825 20.5725 17.4075
8139 1 3.165 22.155 18.99
8140 1 1.5825 20.5725 20.5725
8141 3 3.165 22.155 22.155
8142 1 1.5825 20.5725 23.7375
8143 3 3.165 22.155 25.32
8144 4 1.5825 20.5725 26.9025
8145 4 3.165 22.155 28.485
8146 2 1.5825 20.5725 30.0675
8147 3 1.5825 23.7375 -30.0675
8148 1 3.165 25.32 -28.485
8149 2 1.5825 23.7375 -26.9025
8150 3 3.165 25.32 -25.32
8151 4 3.165 25.32 -22.155
8152 4 1.5825 23.7375 -20.5725
8153 3 3.165 25.32 -18.99
8154 2 1.5825 23.7375 -17.4075
8155 1 3.165 25.32 -15.825
8156 1 1.5825 23.7375 -14.2425
8157 3 1.5825 23.7375 -11.0775
8158 1 3.165 25.32 -9.495
8159 3 1.5825 23.7375 -7.9125
8160 1 3.165 25.32 -6.33
8161 3 1.5825 23.7375 -4.7475
8162 3 3.165 25.32 -3.165
8163 2 1.5825 23.7375 -1.5825
8164 2 3.165 25.32 0.0
8165 4 1.5825 23.7375 1.5825
8166 4 3.165 25.32 3.165
8167 3 1.5825 23.7375 4.7475
8168 1 3.165 25.32 6.33
8169 3 1.5825 23.7375 7.9125
8170 1 3.165 25.32 9.495
8171 4 1.5825 23.7375 11.0775
8172 1 3.165 25.32 12.66
8173 3 1.5825 23.7375 14.2425
8174 3 3.165 25.32 15.825
8175 1 1.5825 23.7375 17.4075
8176 4 3.165 25.32 18.99
8177 4 1.5825 23.7375 20.5725
8178 2 3.165 25.32 22.155
8179 4 1.5825 23.7375 23.7375
8180 4 3.165 25.32 25.32
8181 2 1.5825 23.7375 26.9025
8182 1 1.5825 23.7375 30.0675
8183 2 3.165 25.32 31.65
8184 2 1.5825 26.9025 -30.0675
8185 3 3.165 28.485 -28.485
8186 1 3.165 28.485 -25.32
8187 2 1.5825 26.9025 -23.7375
8188 3 3.165 28.485 -22.155
8189 1 1.5825 26.9025 -20.5725
8190 3 3.165 28.485 -18.99
8191 2 1.5825 26.9025 -17.4075
8192 2 3.165 28.485 -15.825
8193 2 1.5825 26.9025 -14.2425
8194 1 3.165 28.485 -12.66
8195 1 1.5825 26.9025 -11.0775
8196 2 1.5825 26.9025 -7.9125
8197 2 3.165 28.485 -6.33
8198 1 1.5825 26.9025 -4.7475
8199 1 3.165 28.485 -3.165
8200 4 1.5825 26.9025 -1.5825
8201 2 3.165 28.485 0.0
8202 1 1.5825 26.9025 1.5825
8203 3 3.165 28.485 3.165
8204 3 1.5825 26.9025 4.7475
8205 4 3.165 28.485 6.33
8206 1 1.5825 26.9025 7.9125
8207 4 3.165 28.485 9.495
8208 3 1.5825 26.9025 11.0775
8209 2 3.165 28.485 12.66
8210 1 1.5825 26.9025 14.2425
8211 1 3.165 28.485 15.825
8212 3 1.5825 26.9025 17.4075
8213 1 3.165 28.485 18.99
8214 1 1.5825 26.9025 20.5725
8215 1 3.165 28.485 22.155
8216 4 1.5825 26.9025 23.7375
8217 1 1.5825 26.9025 26.9025
8218 3 3.165 28.485 28.485
8219 2 1.5825 26.9025 30.0675
8220 4 3.165 28.485 31.65
8221 1 1.5825 30.0675 -30.0675
8222 1 1.5825 30.0675 -26.9025
8223 3 3.165 31.65 -25.32
8224 2 1.5825 30.0675 -23.7375
8225 1 3.165 31.65 -22.155
8226 3 1.5825 30.0675 -20.5725
8227 4 3.165 31.65 -18.99
8228 3 1.5825 30.0675 -17.4075
8229 3 3.165 31.65 -15.825
8230 1 1.5825 30.0675 -14.2425
8231 2 3.165 31.65 -12.66
8232 4 1.5825 30.0675 -11.0775
8233 1 3.165 31.65 -9.495
8234 2 1.5825 30.0675 -7.9125
8235 3 3.165 31.65 -6.33
8236 3 1.5825 30.0675 -4.7475
8237 2 3.165 31.65 -3.165
8238 3 1.5825 30.0675 -1.5825
8239 2 3.165 31.65 0.0
8240 4 1.5825 30.0675 1.5825
8241 1 3.165 31.65 3.165
8242 2 1.5825 30.0675 4.7475
8243 3 3.165 31.65 6.33
8244 1 1.5825 30.0675 7.9125
8245 2 3.165 31.65 9.495
8246 1 1.5825 30.0675 11.0775
8247 4 3.165 31.65 12.66
8248 1 3.165 31.65 15.825
8249 1 1.5825 30.0675 17.4075
8250 1 3.165 31.65 18.99
8251 2 1.5825 30.0675 20.5725
8252 2 3.165 31.65 22.155
8253 1 1.5825 30.0675 23.7375
8254 4 3.165 31.65 25.32
8255 4 1.5825 30.0675 26.9025
8256 1 3.165 31.65 28.485
8257 2 1.5825 30.0675 30.0675
8258 3 3.165 31.65 31.65
8259 4 4.7475 -30.0675 -30.0675
8260 3 6.33 -28.485 -28.485
8261 4 4.7475 -30.0675 -26.9025
8262 4 6.33 -28.485 -25.32
8263 2 4.7475 -30.0675 -23.7375
8264 1 6.33 -28.485 -22.155
8265 4 4.7475 -30.0675 -20.5725
8266 4 6.33 -28.485 -18.99
8267 2 4.7475 -30.0675 -17.4075
8268 4 6.33 -28.485 -15.825
8269 1 4.7475 -30.0675 -14.2425
8270 3 4.7475 -30.0675 -11.0775
8271 1 6.33 -28.485 -9.495
8272 4 4.7475 -30.0675 -7.9125
8273 2 6.33 -28.485 -6.33
8274 4 4.7475 -30.0675 -4.7475
8275 1 6.33 -28.485 -3.165
8276 3 4.7475 -30.0675 -1.5825
8277 3 6.33 -28.485 0.0
8278 1 4.7475 -30.0675 1.5825
8279 3 6.33 -28.485 3.165
8280 3 4.7475 -30.0675 4.7475
8281 3 6.33 -28.485 6.33
8282 2 4.7475 -30.0675 7.9125
8283 4 6.33 -28.485 9.495
8284 2 4.7475 -30.0675 11.0775
8285 3 6.33 -28.485 12.66
8286 4 4.7475 -30.0675 14.2425
8287 2 6.33 -28.485 15.825
8288 1 4.7475 -30.0675 17.4075
8289 2 6.33 -28.485 18.99
8290 2 4.7475 -30.0675 20.5725
8291 1 6.33 -28.485 22.155
8292 1 4.7475 -30.0675 23.7375
8293 1 6.33 -28.485 25.32
8294 2 4.7475 -30.0675 26.9025
8295 2 6.33 -28.485 28.485
8296 1 4.7475 -30.0675 30.0675
8297 1 6.33 -28.485 31.65
8298 3 4.7475 -26.9025 -30.0675
8299 2 6.33 -25.32 -28.485
8300 1 4.7475 -26.9025 -26.9025
8301 3 6.33 -25.32 -25.32
8302 1 4.7475 -26.9025 -23.7375
8303 1 6.33 -25.32 -22.155
8304 1 4.7475 -26.9025 -20.5725
8305 2 6.33 -25.32 -18.99
8306 4 4.7475 -26.9025 -17.4075
8307 4 6.33 -25.32 -15.825
8308 3 4.7475 -26.9025 -14.2425
8309 3 6.33 -25.32 -12.66
8310 2 4.7475 -26.9025 -11.0775
8311 1 6.33 -25.32 -9.495
8312 1 4.7475 -26.9025 -7.9125
8313 2 6.33 -25.32 -6.33
8314 4 4.7475 -26.9025 -4.7475
8315 3 6.33 -25.32 -3.165
8316 1 4.7475 -26.9025 -1.5825
8317 3 6.33 -25.32 0.0
8318 1 4.7475 -26.9025 1.5825
8319 2 6.33 -25.32 3.165
8320 1 4.7475 -26.9025 4.7475
8321 4 6.33 -25.32 6.33
8322 1 4.7475 -26.9025 7.9125
8323 4 6.33 -25.32 9.495
8324 4 4.7475 -26.9025 11.0775
8325 2 6.33 -25.32 12.66
8326 4 4.7475 -26.9025 14.2425
8327 1 6.33 -25.32 15.825
8328 4 4.7475 -26.9025 17.4075
8329 4 6.33 -25.32 18.99
8330 3 4.7475 -26.9025 20.5725
8331 3 6.33 -25.32 22.155
8332 2 4.7475 -26.9025 23.7375
8333 4 6.33 -25.32 25.32
8334 3 6.33 -25.32 28.485
8335 2 4.7475 -26.9025 30.0675
8336 4 6.33 -25.32 31.65
8337 4 4.7475 -23.7375 -30.0675
8338 2 6.33 -22.155 -28.485
8339 4 4.7475 -23.7375 -26.9025
8340 1 6.33 -22.155 -25.32
8341 2 4.7475 -23.7375 -23.7375
8342 2 6.33 -22.155 -22.155
8343 4 6.33 -22.155 -18.99
8344 4 4.7475 -23.7375 -17.4075
8345 4 6.33 -22.155 -15.825
8346 2 4.7475 -23.7375 -14.2425
8347 2 6.33 -22.155 -12.66
8348 1 4.7475 -23.7375 -11.0775
8349 1 6.33 -22.155 -9.495
8350 1 4.7475 -23.7375 -7.9125
8351 4 6.33 -22.155 -6.33
8352 1 4.7475 -23.7375 -4.7475
8353 1 6.33 -22.155 -3.165
8354 1 4.7475 -23.7375 -1.5825
8355 4 6.33 -22.155 0.0
8356 2 4.7475 -23.7375 1.5825
8357 4 6.33 -22.155 3.165
8358 4 4.7475 -23.7375 4.7475
8359 3 6.33 -22.155 6.33
8360 3 4.7475 -23.7375 7.9125
8361 4 6.33 -22.155 9.495
8362 3 4.7475 -23.7375 11.0775
8363 2 6.33 -22.155 12.66
8364 3 4.7475 -23.7375 14.2425
8365 3 6.33 -22.155 15.825
8366 3 4.7475 -23.7375 17.4075
8367 3 6.33 -22.155 18.99
8368 1 6.33 -22.155 22.155
8369 3 4.7475 -23.7375 23.7375
8370 2 6.33 -22.155 25.32
8371 4 4.7475 -23.7375 26.9025
8372 3 6.33 -22.155 28.485
8373 4 4.7475 -23.7375 30.0675
8374 4 6.33 -22.155 31.65
8375 2 4.7475 -20.5725 -30.0675
8376 4 6.33 -18.99 -28.485
8377 1 4.7475 -20.5725 -26.9025
8378 4 6.33 -18.99 -25.32
8379 3 4.7475 -20.5725 -23.7375
8380 1 6.33 -18.99 -22.155
8381 1 4.7475 -20.5725 -20.5725
8382 4 6.33 -18.99 -18.99
8383 2 4.7475 -20.5725 -17.4075
8384 3 6.33 -18.99 -15.825
8385 1 4.7475 -20.5725 -14.2425
8386 3 6.33 -18.99 -12.66
8387 4 4.7475 -20.5725 -11.0775
8388 1 6.33 -18.99 -9.495
8389 4 6.33 -18.99 -6.33
8390 4 6.33 -18.99 -3.165
8391 3 4.7475 -20.5725 -1.5825
8392 4 6.33 -18.99 0.0
8393 1 4.7475 -20.5725 1.5825
8394 1 6.33 -18.99 3.165
8395 4 4.7475 -20.5725 4.7475
8396 2 6.33 -18.99 6.33
8397 3 4.7475 -20.5725 7.9125
8398 3 6.33 -18.99 9.495
8399 4 4.7475 -20.5725 11.0775
8400 1 6.33 -18.99 12.66
8401 3 4.7475 -20.5725 14.2425
8402 2 6.33 -18.99 15.825
8403 3 4.7475 -20.5725 17.4075
8404 3 6.33 -18.99 18.99
8405 3 4.7475 -20.5725 20.5725
8406 2 6.33 -18.99 22.155
8407 1 4.7475 -20.5725 23.7375
8408 2 6.33 -18.99 25.32
8409 4 4.7475 -20.5725 26.9025
8410 3 6.33 -18.99 28.485
8411 4 4.7475 -20.5725 30.0675
8412 1 6.33 -18.99 31.65
8413 4 4.7475 -17.4075 -30.0675
8414 1 6.33 -15.825 -28.485
8415 3 4.7475 -17.4075 -26.9025
8416 4 6.33 -15.825 -25.32
8417 1 4.7475 -17.4075 -23.7375
8418 2 6.33 -15.825 -22.155
8419 2 4.7475 -17.4075 -20.5725
8420 2 6.33 -15.825 -18.99
8421 3 4.7475 -17.4075 -17.4075
8422 1 6.33 -15.825 -15.825
8423 3 4.7475 -17.4075 -14.2425
8424 1 6.33 -15.825 -12.66
8425 4 4.7475 -17.4075 -11.0775
8426 3 4.7475 -17.4075 -7.9125
8427 2 6.33 -15.825 -6.33
8428 4 4.7475 -17.4075 -4.7475
8429 3 6.33 -15.825 -3.165
8430 3 4.7475 -17.4075 -1.5825
8431 1 6.33 -15.825 0.0
8432 1 4.7475 -17.4075 1.5825
8433 3 6.33 -15.825 3.165
8434 3 4.7475 -17.4075 4.7475
8435 2 6.33 -15.825 6.33
8436 2 4.7475 -17.4075 7.9125
8437 3 6.33 -15.825 9.495
8438 1 4.7475 -17.4075 11.0775
8439 4 6.33 -15.825 12.66
8440 2 4.7475 -17.4075 14.2425
8441 2 6.33 -15.825 15.825
8442 4 4.7475 -17.4075 17.4075
8443 1 6.33 -15.825 18.99
8444 1 4.7475 -17.4075 20.5725
8445 3 6.33 -15.825 22.155
8446 4 4.7475 -17.4075 23.7375
8447 2 6.33 -15.825 25.32
8448 2 4.7475 -17.4075 26.9025
8449 4 6.33 -15.825 28.485
8450 1 4.7475 -17.4075 30.0675
8451 3 6.33 -15.825 31.65
8452 1 4.7475 -14.2425 -30.0675
8453 2 6.33 -12.66 -28.485
8454 2 4.7475 -14.2425 -26.9025
8455 3 6.33 -12.66 -25.32
8456 2 4.7475 -14.2425 -23.7375
8457 1 6.33 -12.66 -22.155
8458 1 4.7475 -14.2425 -20.5725
8459 3 6.33 -12.66 -18.99
8460 2 4.7475 -14.2425 -17.4075
8461 3 6.33 -12.66 -15.825
8462 3 4.7475 -14.2425 -14.2425
8463 4 6.33 -12.66 -12.66
8464 1 4.7475 -14.2425 -11.0775
8465 4 6.33 -12.66 -9.495
8466 2 4.7475 -14.2425 -7.9125
8467 1 4.7475 -14.2425 -4.7475
8468 4 6.33 -12.66 -3.165
8469 3 4.7475 -14.2425 -1.5825
8470 4 6.33 -12.66 0.0
8471 4 4.7475 -14.2425 1.5825
8472 1 6.33 -12.66 3.165
8473 2 4.7475 -14.2425 4.7475
8474 3 6.33 -12.66 6.33
8475 4 4.7475 -14.2425 7.9125
8476 3 6.33 -12.66 9.495
8477 1 4.7475 -14.2425 11.0775
8478 1 6.33 -12.66 12.66
8479 4 4.7475 -14.2425 14.2425
8480 2 6.33 -12.66 15.825
8481 4 4.7475 -14.2425 17.4075
8482 2 6.33 -12.66 18.99
8483 3 4.7475 -14.2425 20.5725
8484 3 6.33 -12.66 22.155
8485 2 4.7475 -14.2425 23.7375
8486 2 6.33 -12.66 25.32
8487 1 6.33 -12.66 28.485
8488 3 4.7475 -14.2425 30.0675
8489 3 6.33 -12.66 31.65
8490 3 4.7475 -11.0775 -30.0675
8491 4 6.33 -9.495 -28.485
8492 3 4.7475 -11.0775 -26.9025
8493 3 6.33 -9.495 -25.32
8494 1 4.7475 -11.0775 -23.7375
8495 3 6.33 -9.495 -22.155
8496 2 4.7475 -11.0775 -20.5725
8497 4 6.33 -9.495 -18.99
8498 3 4.7475 -11.0775 -17.4075
8499 2 6.33 -9.495 -15.825
8500 2 4.7475 -11.0775 -14.2425
8501 1 6.33 -9.495 -12.66
8502 2 4.7475 -11.0775 -11.0775
8503 2 6.33 -9.495 -9.495
8504 2 4.7475 -11.0775 -7.9125
8505 3 6.33 -9.495 -6.33
8506 4 4.7475 -11.0775 -4.7475
8507 1 6.33 -9.495 -3.165
8508 2 4.7475 -11.0775 -1.5825
8509 3 6.33 -9.495 0.0
8510 4 4.7475 -11.0775 1.5825
8511 4 6.33 -9.495 3.165
8512 4 4.7475 -11.0775 4.7475
8513 3 6.33 -9.495 6.33
8514 4 4.7475 -11.0775 7.9125
8515 3 4.7475 -11.0775 11.0775
8516 1 6.33 -9.495 12.66
8517 1 4.7475 -11.0775 14.2425
8518 1 6.33 -9.495 15.825
8519 2 4.7475 -11.0775 17.4075
8520 4 6.33 -9.495 18.99
8521 4 4.7475 -11.0775 20.5725
8522 1 6.33 -9.495 22.155
8523 3 4.7475 -11.0775 23.7375
8524 3 6.33 -9.495 25.32
8525 4 4.7475 -11.0775 26.9025
8526 2 6.33 -9.495 28.485
8527 2 4.7475 -11.0775 30.0675
8528 2 6.33 -9.495 31.65
8529 2 6.33 -6.33 -28.485
8530 1 4.7475 -7.9125 -26.9025
8531 3 6.33 -6.33 -25.32
8532 4 4.7475 -7.9125 -23.7375
8533 3 6.33 -6.33 -22.155
8534 3 4.7475 -7.9125 -20.5725
8535 3 6.33 -6.33 -18.99
8536 3 4.7475 -7.9125 -17.4075
8537 1 6.33 -6.33 -15.825
8538 4 4.7475 -7.9125 -14.2425
8539 1 6.33 -6.33 -12.66
8540 1 4.7475 -7.9125 -11.0775
8541 4 6.33 -6.33 -9.495
8542 2 4.7475 -7.9125 -7.9125
8543 4 6.33 -6.33 -6.33
8544 4 4.7475 -7.9125 -4.7475
8545 2 6.33 -6.33 -3.165
8546 2 4.7475 -7.9125 -1.5825
8547 1 6.33 -6.33 0.0
8548 1 4.7475 -7.9125 1.5825
8549 4 6.33 -6.33 3.165
8550 1 4.7475 -7.9125 4.7475
8551 1 6.33 -6.33 6.33
8552 2 4.7475 -7.9125 7.9125
8553 3 4.7475 -7.9125 11.0775
8554 1 6.33 -6.33 12.66
8555 4 4.7475 -7.9125 14.2425
8556 4 6.33 -6.33 15.825
8557 3 4.7475 -7.9125 17.4075
8558 4 6.33 -6.33 18.99
8559 2 4.7475 -7.9125 20.5725
8560 4 6.33 -6.33 22.155
8561 4 4.7475 -7.9125 23.7375
8562 1 6.33 -6.33 25.32
8563 2 4.7475 -7.9125 26.9025
8564 4 6.33 -6.33 28.485
8565 1 4.7475 -7.9125 30.0675
8566 3 6.33 -6.33 31.65
8567 1 4.7475 -4.7475 -30.0675
8568 4 6.33 -3.165 -28.485
8569 3 4.7475 -4.7475 -26.9025
8570 2 6.33 -3.165 -25.32
8571 2 4.7475 -4.7475 -23.7375
8572 2 6.33 -3.165 -22.155
8573 3 4.7475 -4.7475 -20.5725
8574 2 6.33 -3.165 -18.99
8575 2 4.7475 -4.7475 -17.4075
8576 4 6.33 -3.165 -15.825
8577 2 4.7475 -4.7475 -14.2425
8578 1 6.33 -3.165 -12.66
8579 3 4.7475 -4.7475 -11.0775
8580 2 6.33 -3.165 -9.495
8581 1 4.7475 -4.7475 -7.9125
8582 4 6.33 -3.165 -6.33
8583 2 4.7475 -4.7475 -4.7475
8584 1 6.33 -3.165 -3.165
8585 2 4.7475 -4.7475 -1.5825
8586 1 6.33 -3.165 0.0
8587 4 4.7475 -4.7475 1.5825
8588 4 6.33 -3.165 3.165
8589 3 4.7475 -4.7475 4.7475
8590 2 6.33 -3.165 6.33
8591 1 4.7475 -4.7475 7.9125
8592 2 6.33 -3.165 9.495
8593 4 4.7475 -4.7475 11.0775
8594 3 6.33 -3.165 12.66
8595 1 4.7475 -4.7475 14.2425
8596 2 6.33 -3.165 15.825
8597 2 4.7475 -4.7475 17.4075
8598 1 6.33 -3.165 18.99
8599 4 4.7475 -4.7475 20.5725
8600 2 6.33 -3.165 22.155
8601 2 4.7475 -4.7475 23.7375
8602 1 6.33 -3.165 25.32
8603 3 4.7475 -4.7475 26.9025
8604 4 6.33 -3.165 28.485
8605 2 4.7475 -4.7475 30.0675
8606 4 6.33 -3.165 31.65
8607 2 4.7475 -1.5825 -30.0675
8608 4 6.33 0.0 -28.485
8609 4 4.7475 -1.5825 -26.9025
8610 2 6.33 0.0 -25.32
8611 2 4.7475 -1.5825 -23.7375
8612 1 6.33 0.0 -22.155
8613 2 4.7475 -1.5825 -20.5725
8614 1 6.33 0.0 -18.99
8615 2 6.33 0.0 -15.825
8616 3 4.7475 -1.5825 -14.2425
8617 3 6.33 0.0 -12.66
8618 3 4.7475 -1.5825 -11.0775
8619 4 6.33 0.0 -9.495
8620 2 4.7475 -1.5825 -7.9125
8621 3 6.33 0.0 -6.33
8622 2 4.7475 -1.5825 -4.7475
8623 1 6.33 0.0 -3.165
8624 2 4.7475 -1.5825 -1.5825
8625 1 4.7475 -1.5825 1.5825
8626 4 6.33 0.0 3.165
8627 1 4.7475 -1.5825 4.7475
8628 2 6.33 0.0 6.33
8629 4 4.7475 -1.5825 7.9125
8630 3 6.33 0.0 9.495
8631 1 4.7475 -1.5825 11.0775
8632 2 6.33 0.0 12.66
8633 3 4.7475 -1.5825 14.2425
8634 1 6.33 0.0 15.825
8635 1 4.7475 -1.5825 17.4075
8636 4 6.33 0.0 18.99
8637 1 4.7475 -1.5825 20.5725
8638 1 6.33 0.0 22.155
8639 2 4.7475 -1.5825 23.7375
8640 2 6.33 0.0 25.32
8641 2 4.7475 -1.5825 26.9025
8642 4 6.33 0.0 28.485
8643 3 4.7475 -1.5825 30.0675
8644 1 6.33 0.0 31.65
8645 2 4.7475 1.5825 -30.0675
8646 2 6.33 3.165 -28.485
8647 2 4.7475 1.5825 -26.9025
8648 4 4.7475 1.5825 -23.7375
8649 2 6.33 3.165 -22.155
8650 1 6.33 3.165 -18.99
8651 1 4.7475 1.5825 -17.4075
8652 1 6.33 3.165 -15.825
8653 1 4.7475 1.5825 -14.2425
8654 2 6.33 3.165 -12.66
8655 2 6.33 3.165 -9.495
8656 3 4.7475 1.5825 -7.9125
8657 3 6.33 3.165 -6.33
8658 2 4.7475 1.5825 -4.7475
8659 2 6.33 3.165 -3.165
8660 4 4.7475 1.5825 -1.5825
8661 2 6.33 3.165 0.0
8662 3 4.7475 1.5825 1.5825
8663 1 6.33 3.165 3.165
8664 1 4.7475 1.5825 4.7475
8665 2 6.33 3.165 6.33
8666 2 4.7475 1.5825 7.9125
8667 3 6.33 3.165 9.495
8668 4 4.7475 1.5825 11.0775
8669 4 6.33 3.165 12.66
8670 3 4.7475 1.5825 14.2425
8671 2 6.33 3.165 15.825
8672 1 4.7475 1.5825 17.4075
8673 1 6.33 3.165 18.99
8674 1 4.7475 1.5825 20.5725
8675 4 6.33 3.165 22.155
8676 2 4.7475 1.5825 23.7375
8677 4 4.7475 1.5825 26.9025
8678 2 6.33 3.165 28.485
8679 3 4.7475 1.5825 30.0675
8680 2 6.33 3.165 31.65
8681 3 4.7475 4.7475 -30.0675
8682 1 6.33 6.33 -28.485
8683 3 4.7475 4.7475 -26.9025
8684 2 6.33 6.33 -25.32
8685 1 6.33 6.33 -22.155
8686 4 4.7475 4.7475 -20.5725
8687 1 6.33 6.33 -18.99
8688 3 4.7475 4.7475 -17.4075
8689 4 6.33 6.33 -15.825
8690 3 4.7475 4.7475 -14.2425
8691 2 6.33 6.33 -12.66
8692 4 4.7475 4.7475 -11.0775
8693 4 6.33 6.33 -9.495
8694 2 4.7475 4.7475 -7.9125
8695 3 6.33 6.33 -6.33
8696 2 4.7475 4.7475 -4.7475
8697 4 6.33 6.33 -3.165
8698 3 4.7475 4.7475 -1.5825
8699 4 6.33 6.33 0.0
8700 4 4.7475 4.7475 1.5825
8701 3 6.33 6.33 3.165
8702 1 4.7475 4.7475 4.7475
8703 2 6.33 6.33 6.33
8704 2 4.7475 4.7475 7.9125
8705 1 6.33 6.33 9.495
8706 2 4.7475 4.7475 11.0775
8707 1 6.33 6.33 12.66
8708 3 6.33 6.33 15.825
8709 4 4.7475 4.7475 17.4075
8710 2 6.33 6.33 18.99
8711 4 4.7475 4.7475 20.5725
8712 2 6.33 6.33 22.155
8713 3 4.7475 4.7475 23.7375
8714 2 6.33 6.33 25.32
8715 4 4.7475 4.7475 26.9025
8716 3 6.33 6.33 28.485
8717 4 4.7475 4.7475 30.0675
8718 2 6.33 6.33 31.65
8719 1 4.7475 7.9125 -30.0675
8720 2 6.33 9.495 -28.485
8721 4 4.7475 7.9125 -26.9025
8722 4 6.33 9.495 -25.32
8723 1 4.7475 7.9125 -23.7375
8724 4 6.33 9.495 -22.155
8725 2 4.7475 7.9125 -20.5725
8726 1 6.33 9.495 -18.99
8727 1 4.7475 7.9125 -17.4075
8728 4 6.33 9.495 -15.825
8729 1 4.7475 7.9125 -14.2425
8730 1 6.33 9.495 -12.66
8731 4 4.7475 7.9125 -11.0775
8732 3 6.33 9.495 -9.495
8733 4 4.7475 7.9125 -7.9125
8734 4 6.33 9.495 -6.33
8735 3 4.7475 7.9125 -4.7475
8736 3 6.33 9.495 -3.165
8737 1 4.7475 7.9125 -1.5825
8738 1 6.33 9.495 0.0
8739 2 4.7475 7.9125 1.5825
8740 4 6.33 9.495 3.165
8741 2 4.7475 7.9125 4.7475
8742 3 6.33 9.495 6.33
8743 1 4.7475 7.9125 7.9125
8744 3 6.33 9.495 9.495
8745 4 4.7475 7.9125 11.0775
8746 3 6.33 9.495 12.66
8747 4 4.7475 7.9125 14.2425
8748 3 6.33 9.495 15.825
8749 4 4.7475 7.9125 17.4075
8750 3 6.33 9.495 18.99
8751 1 4.7475 7.9125 20.5725
8752 3 6.33 9.495 22.155
8753 1 4.7475 7.9125 23.7375
8754 4 6.33 9.495 25.32
8755 4 4.7475 7.9125 26.9025
8756 4 6.33 9.495 28.485
8757 4 4.7475 7.9125 30.0675
8758 2 6.33 9.495 31.65
8759 1 4.7475 11.0775 -30.0675
8760 3 6.33 12.66 -28.485
8761 3 4.7475 11.0775 -26.9025
8762 4 6.33 12.66 -25.32
8763 2 4.7475 11.0775 -23.7375
8764 4 6.33 12.66 -22.155
8765 1 4.7475 11.0775 -20.5725
8766 1 6.33 12.66 -18.99
8767 4 4.7475 11.0775 -17.4075
8768 1 6.33 12.66 -15.825
8769 2 4.7475 11.0775 -14.2425
8770 2 6.33 12.66 -12.66
8771 2 4.7475 11.0775 -11.0775
8772 2 6.33 12.66 -9.495
8773 4 4.7475 11.0775 -7.9125
8774 2 6.33 12.66 -6.33
8775 3 4.7475 11.0775 -4.7475
8776 3 6.33 12.66 -3.165
8777 3 4.7475 11.0775 -1.5825
8778 3 6.33 12.66 0.0
8779 1 4.7475 11.0775 1.5825
8780 2 6.33 12.66 3.165
8781 4 4.7475 11.0775 4.7475
8782 2 6.33 12.66 6.33
8783 4 4.7475 11.0775 7.9125
8784 4 6.33 12.66 9.495
8785 3 4.7475 11.0775 11.0775
8786 4 6.33 12.66 12.66
8787 2 4.7475 11.0775 14.2425
8788 2 6.33 12.66 15.825
8789 1 4.7475 11.0775 17.4075
8790 2 6.33 12.66 18.99
8791 1 4.7475 11.0775 20.5725
8792 4 6.33 12.66 22.155
8793 3 4.7475 11.0775 23.7375
8794 1 6.33 12.66 25.32
8795 3 4.7475 11.0775 26.9025
8796 1 6.33 12.66 28.485
8797 2 4.7475 11.0775 30.0675
8798 3 6.33 12.66 31.65
8799 3 6.33 15.825 -28.485
8800 2 4.7475 14.2425 -26.9025
8801 3 6.33 15.825 -25.32
8802 1 4.7475 14.2425 -23.7375
8803 1 6.33 15.825 -22.155
8804 2 4.7475 14.2425 -20.5725
8805 3 6.33 15.825 -18.99
8806 2 4.7475 14.2425 -17.4075
8807 2 6.33 15.825 -15.825
8808 2 4.7475 14.2425 -14.2425
8809 3 6.33 15.825 -12.66
8810 1 4.7475 14.2425 -11.0775
8811 2 6.33 15.825 -9.495
8812 2 4.7475 14.2425 -7.9125
8813 2 6.33 15.825 -6.33
8814 1 4.7475 14.2425 -4.7475
8815 4 6.33 15.825 -3.165
8816 3 4.7475 14.2425 -1.5825
8817 2 6.33 15.825 0.0
8818 1 4.7475 14.2425 1.5825
8819 1 6.33 15.825 3.165
8820 2 4.7475 14.2425 4.7475
8821 4 6.33 15.825 6.33
8822 2 4.7475 14.2425 7.9125
8823 1 6.33 15.825 9.495
8824 1 4.7475 14.2425 11.0775
8825 4 4.7475 14.2425 14.2425
8826 2 6.33 15.825 15.825
8827 1 4.7475 14.2425 17.4075
8828 1 6.33 15.825 18.99
8829 4 4.7475 14.2425 20.5725
8830 2 6.33 15.825 22.155
8831 3 4.7475 14.2425 23.7375
8832 3 6.33 15.825 25.32
8833 4 4.7475 14.2425 26.9025
8834 2 6.33 15.825 28.485
8835 4 4.7475 14.2425 30.0675
8836 1 6.33 15.825 31.65
8837 2 4.7475 17.4075 -30.0675
8838 3 6.33 18.99 -28.485
8839 1 4.7475 17.4075 -26.9025
8840 3 6.33 18.99 -25.32
8841 3 4.7475 17.4075 -23.7375
8842 4 6.33 18.99 -22.155
8843 2 4.7475 17.4075 -20.5725
8844 4 4.7475 17.4075 -17.4075
8845 4 6.33 18.99 -15.825
8846 1 4.7475 17.4075 -14.2425
8847 3 4.7475 17.4075 -11.0775
8848 4 6.33 18.99 -9.495
8849 1 4.7475 17.4075 -7.9125
8850 3 6.33 18.99 -6.33
8851 3 4.7475 17.4075 -4.7475
8852 3 6.33 18.99 -3.165
8853 4 4.7475 17.4075 -1.5825
8854 1 6.33 18.99 0.0
8855 4 4.7475 17.4075 1.5825
8856 4 6.33 18.99 3.165
8857 1 4.7475 17.4075 4.7475
8858 2 6.33 18.99 6.33
8859 1 4.7475 17.4075 7.9125
8860 3 6.33 18.99 9.495
8861 2 4.7475 17.4075 11.0775
8862 4 6.33 18.99 12.66
8863 4 4.7475 17.4075 14.2425
8864 3 6.33 18.99 15.825
8865 4 4.7475 17.4075 17.4075
8866 3 4.7475 17.4075 20.5725
8867 2 6.33 18.99 22.155
8868 1 4.7475 17.4075 23.7375
8869 1 6.33 18.99 25.32
8870 1 6.33 18.99 28.485
8871 2 4.7475 17.4075 30.0675
8872 3 6.33 18.99 31.65
8873 4 4.7475 20.5725 -30.0675
8874 3 4.7475 20.5725 -26.9025
8875 1 6.33 22.155 -25.32
8876 2 4.7475 20.5725 -23.7375
8877 2 6.33 22.155 -22.155
8878 1 4.7475 20.5725 -20.5725
8879 1 6.33 22.155 -18.99
8880 2 4.7475 20.5725 -17.4075
8881 4 6.33 22.155 -15.825
8882 2 4.7475 20.5725 -14.2425
8883 1 6.33 22.155 -12.66
8884 1 4.7475 20.5725 -11.0775
8885 2 6.33 22.155 -9.495
8886 2 4.7475 20.5725 -7.9125
8887 4 4.7475 20.5725 -4.7475
8888 1 6.33 22.155 -3.165
8889 3 4.7475 20.5725 -1.5825
8890 3 6.33 22.155 0.0
8891 1 4.7475 20.5725 1.5825
8892 2 6.33 22.155 3.165
8893 4 4.7475 20.5725 4.7475
8894 1 6.33 22.155 6.33
8895 3 4.7475 20.5725 7.9125
8896 4 6.33 22.155 9.495
8897 1 4.7475 20.5725 11.0775
8898 2 6.33 22.155 12.66
8899 3 4.7475 20.5725 14.2425
8900 2 6.33 22.155 15.825
8901 4 4.7475 20.5725 17.4075
8902 4 6.33 22.155 18.99
8903 2 4.7475 20.5725 20.5725
8904 3 6.33 22.155 22.155
8905 1 4.7475 20.5725 23.7375
8906 1 6.33 22.155 25.32
8907 3 6.33 22.155 28.485
8908 4 4.7475 20.5725 30.0675
8909 3 6.33 22.155 31.65
8910 2 4.7475 23.7375 -30.0675
8911 2 6.33 25.32 -28.485
8912 1 4.7475 23.7375 -26.9025
8913 2 6.33 25.32 -25.32
8914 3 4.7475 23.7375 -20.5725
8915 4 6.33 25.32 -18.99
8916 2 4.7475 23.7375 -17.4075
8917 3 6.33 25.32 -15.825
8918 2 6.33 25.32 -12.66
8919 4 4.7475 23.7375 -11.0775
8920 2 6.33 25.32 -9.495
8921 3 4.7475 23.7375 -7.9125
8922 2 6.33 25.32 -6.33
8923 2 4.7475 23.7375 -4.7475
8924 1 6.33 25.32 -3.165
8925 2 4.7475 23.7375 -1.5825
8926 4 6.33 25.32 0.0
8927 3 4.7475 23.7375 1.5825
8928 2 6.33 25.32 3.165
8929 2 4.7475 23.7375 4.7475
8930 1 6.33 25.32 6.33
8931 2 4.7475 23.7375 7.9125
8932 4 6.33 25.32 9.495
8933 4 4.7475 23.7375 11.0775
8934 2 6.33 25.32 12.66
8935 1 4.7475 23.7375 14.2425
8936 2 4.7475 23.7375 17.4075
8937 1 6.33 25.32 18.99
8938 1 4.7475 23.7375 20.5725
8939 4 6.33 25.32 22.155
8940 4 4.7475 23.7375 23.7375
8941 3 6.33 25.32 25.32
8942 2 6.33 25.32 28.485
8943 1 4.7475 23.7375 30.0675
8944 3 6.33 25.32 31.65
8945 3 4.7475 26.9025 -30.0675
8946 2 6.33 28.485 -28.485
8947 4 6.33 28.485 -25.32
8948 3 4.7475 26.9025 -23.7375
8949 1 6.33 28.485 -22.155
8950 4 4.7475 26.9025 -20.5725
8951 3 6.33 28.485 -18.99
8952 2 4.7475 26.9025 -17.4075
8953 3 6.33 28.485 -15.825
8954 3 4.7475 26.9025 -14.2425
8955 4 6.33 28.485 -12.66
8956 1 4.7475 26.9025 -11.0775
8957 3 6.33 28.485 -9.495
8958 4 4.7475 26.9025 -7.9125
8959 3 6.33 28.485 -6.33
8960 1 4.7475 26.9025 -4.7475
8961 4 6.33 28.485 -3.165
8962 2 4.7475 26.9025 -1.5825
8963 4 6.33 28.485 0.0
8964 4 4.7475 26.9025 1.5825
8965 2 6.33 28.485 6.33
8966 3 6.33 28.485 9.495
8967 4 4.7475 26.9025 11.0775
8968 3 6.33 28.485 12.66
8969 1 4.7475 26.9025 14.2425
8970 4 6.33 28.485 15.825
8971 1 4.7475 26.9025 17.4075
8972 4 6.33 28.485 18.99
8973 3 4.7475 26.9025 20.5725
8974 1 6.33 28.485 22.155
8975 3 4.7475 26.9025 23.7375
8976 3 4.7475 26.9025 26.9025
8977 2 6.33 28.485 28.485
8978 3 4.7475 26.9025 30.0675
8979 3 4.7475 30.0675 -30.0675
8980 3 6.33 31.65 -28.485
8981 4 4.7475 30.0675 -26.9025
8982 3 6.33 31.65 -25.32
8983 3 6.33 31.65 -22.155
8984 3 4.7475 30.0675 -20.5725
8985 3 6.33 31.65 -18.99
8986 3 4.7475 30.0675 -17.4075
8987 3 6.33 31.65 -15.825
8988 2 4.7475 30.0675 -14.2425
8989 3 6.33 31.65 -12.66
8990 3 4.7475 30.0675 -11.0775
8991 3 6.33 31.65 -9.495
8992 4 4.7475 30.0675 -7.9125
8993 4 6.33 31.65 -6.33
8994 4 4.7475 30.0675 -4.7475
8995 3 4.7475 30.0675 -1.5825
8996 2 6.33 31.65 0.0
8997 4 4.7475 30.0675 1.5825
8998 2 4.7475 30.0675 4.7475
8999 4 6.33 31.65 6.33
9000 1 4.7475 30.0675 7.9125
9001 2 6.33 31.65 9.495
9002 1 4.7475 30.0675 11.0775
9003 1 6.33 31.65 12.66
9004 3 4.7475 30.0675 14.2425
9005 4 6.33 31.65 15.825
9006 2 6.33 31.65 18.99
9007 3 4.7475 30.0675 20.5725
9008 2 6.33 31.65 22.155
9009 3 4.7475 30.0675 23.7375
9010 1 4.7475 30.0675 26.9025
9011 2 6.33 31.65 28.485
9012 3 4.7475 30.0675 30.0675
9013 4 6.33 31.65 31.65
9014 4 7.9125 -30.0675 -30.0675
9015 3 9.495 -28.485 -28.485
9016 4 7.9125 -30.0675 -26.9025
9017 3 9.495 -28.485 -25.32
9018 2 7.9125 -30.0675 -23.7375
9019 1 9.495 -28.485 -22.155
9020 4 7.9125 -30.0675 -20.5725
9021 3 9.495 -28.485 -18.99
9022 4 7.9125 -30.0675 -17.4075
9023 4 9.495 -28.485 -15.825
9024 1 7.9125 -30.0675 -14.2425
9025 2 9.495 -28.485 -12.66
9026 1 7.9125 -30.0675 -11.0775
9027 4 7.9125 -30.0675 -7.9125
9028 2 9.495 -28.485 -6.33
9029 4 7.9125 -30.0675 -4.7475
9030 2 9.495 -28.485 -3.165
9031 2 7.9125 -30.0675 -1.5825
9032 1 9.495 -28.485 0.0
9033 2 7.9125 -30.0675 1.5825
9034 2 9.495 -28.485 3.165
9035 4 7.9125 -30.0675 4.7475
9036 3 9.495 -28.485 6.33
9037 4 7.9125 -30.0675 7.9125
9038 4 9.495 -28.485 9.495
9039 3 7.9125 -30.0675 11.0775
9040 2 9.495 -28.485 12.66
9041 2 7.9125 -30.0675 14.2425
9042 3 9.495 -28.485 15.825
9043 2 7.9125 -30.0675 17.4075
9044 1 9.495 -28.485 18.99
9045 1 7.9125 -30.0675 20.5725
9046 4 9.495 -28.485 22.155
9047 3 7.9125 -30.0675 23.7375
9048 2 9.495 -28.485 25.32
9049 2 7.9125 -30.0675 26.9025
9050 3 9.495 -28.485 28.485
9051 1 7.9125 -30.0675 30.0675
9052 4 9.495 -28.485 31.65
9053 4 7.9125 -26.9025 -30.0675
9054 2 9.495 -25.32 -28.485
9055 4 7.9125 -26.9025 -26.9025
9056 2 9.495 -25.32 -25.32
9057 2 7.9125 -26.9025 -23.7375
9058 1 9.495 -25.32 -22.155
9059 2 7.9125 -26.9025 -20.5725
9060 2 9.495 -25.32 -18.99
9061 2 9.495 -25.32 -15.825
9062 3 7.9125 -26.9025 -14.2425
9063 4 9.495 -25.32 -12.66
9064 1 7.9125 -26.9025 -11.0775
9065 2 9.495 -25.32 -9.495
9066 4 7.9125 -26.9025 -7.9125
9067 1 9.495 -25.32 -6.33
9068 1 7.9125 -26.9025 -4.7475
9069 3 9.495 -25.32 -3.165
9070 2 7.9125 -26.9025 -1.5825
9071 2 7.9125 -26.9025 1.5825
9072 3 9.495 -25.32 3.165
9073 3 7.9125 -26.9025 4.7475
9074 2 9.495 -25.32 6.33
9075 3 7.9125 -26.9025 7.9125
9076 1 7.9125 -26.9025 11.0775
9077 4 9.495 -25.32 12.66
9078 2 9.495 -25.32 15.825
9079 3 7.9125 -26.9025 17.4075
9080 2 9.495 -25.32 18.99
9081 4 7.9125 -26.9025 20.5725
9082 3 9.495 -25.32 22.155
9083 4 7.9125 -26.9025 23.7375
9084 3 9.495 -25.32 25.32
9085 4 7.9125 -26.9025 26.9025
9086 4 9.495 -25.32 28.485
9087 1 7.9125 -26.9025 30.0675
9088 4 7.9125 -23.7375 -30.0675
9089 2 9.495 -22.155 -28.485
9090 1 7.9125 -23.7375 -26.9025
9091 4 7.9125 -23.7375 -23.7375
9092 4 9.495 -22.155 -22.155
9093 2 7.9125 -23.7375 -20.5725
9094 3 9.495 -22.155 -18.99
9095 3 7.9125 -23.7375 -17.4075
9096 4 9.495 -22.155 -15.825
9097 4 7.9125 -23.7375 -14.2425
9098 4 9.495 -22.155 -12.66
9099 4 7.9125 -23.7375 -11.0775
9100 3 9.495 -22.155 -9.495
9101 1 7.9125 -23.7375 -7.9125
9102 1 9.495 -22.155 -6.33
9103 1 7.9125 -23.7375 -4.7475
9104 1 9.495 -22.155 -3.165
9105 4 7.9125 -23.7375 -1.5825
9106 2 9.495 -22.155 0.0
9107 2 7.9125 -23.7375 1.5825
9108 4 9.495 -22.155 3.165
9109 4 7.9125 -23.7375 4.7475
9110 4 9.495 -22.155 6.33
9111 3 7.9125 -23.7375 7.9125
9112 3 9.495 -22.155 9.495
9113 3 7.9125 -23.7375 11.0775
9114 3 7.9125 -23.7375 14.2425
9115 1 9.495 -22.155 15.825
9116 1 7.9125 -23.7375 17.4075
9117 3 9.495 -22.155 18.99
9118 4 7.9125 -23.7375 20.5725
9119 1 9.495 -22.155 22.155
9120 1 7.9125 -23.7375 23.7375
9121 3 9.495 -22.155 25.32
9122 4 7.9125 -23.7375 26.9025
9123 3 9.495 -22.155 28.485
9124 2 7.9125 -23.7375 30.0675
9125 3 9.495 -22.155 31.65
9126 3 7.9125 -20.5725 -30.0675
9127 2 9.495 -18.99 -28.485
9128 2 7.9125 -20.5725 -26.9025
9129 4 9.495 -18.99 -25.32
9130 2 7.9125 -20.5725 -23.7375
9131 3 9.495 -18.99 -22.155
9132 3 7.9125 -20.5725 -20.5725
9133 4 9.495 -18.99 -18.99
9134 4 7.9125 -20.5725 -17.4075
9135 4 9.495 -18.99 -15.825
9136 2 7.9125 -20.5725 -14.2425
9137 4 9.495 -18.99 -12.66
9138 1 7.9125 -20.5725 -11.0775
9139 3 9.495 -18.99 -9.495
9140 1 7.9125 -20.5725 -7.9125
9141 4 9.495 -18.99 -6.33
9142 2 9.495 -18.99 -3.165
9143 2 7.9125 -20.5725 -1.5825
9144 4 9.495 -18.99 0.0
9145 1 7.9125 -20.5725 1.5825
9146 3 9.495 -18.99 3.165
9147 1 7.9125 -20.5725 4.7475
9148 4 9.495 -18.99 6.33
9149 4 7.9125 -20.5725 7.9125
9150 3 7.9125 -20.5725 11.0775
9151 1 9.495 -18.99 12.66
9152 4 7.9125 -20.5725 14.2425
9153 1 9.495 -18.99 15.825
9154 3 7.9125 -20.5725 17.4075
9155 3 9.495 -18.99 18.99
9156 3 7.9125 -20.5725 20.5725
9157 2 9.495 -18.99 22.155
9158 1 7.9125 -20.5725 23.7375
9159 3 9.495 -18.99 25.32
9160 4 7.9125 -20.5725 26.9025
9161 1 9.495 -18.99 28.485
9162 3 7.9125 -20.5725 30.0675
9163 2 9.495 -18.99 31.65
9164 3 7.9125 -17.4075 -30.0675
9165 1 9.495 -15.825 -28.485
9166 4 7.9125 -17.4075 -26.9025
9167 1 7.9125 -17.4075 -23.7375
9168 1 9.495 -15.825 -22.155
9169 3 7.9125 -17.4075 -20.5725
9170 3 9.495 -15.825 -18.99
9171 3 7.9125 -17.4075 -17.4075
9172 2 9.495 -15.825 -15.825
9173 3 7.9125 -17.4075 -14.2425
9174 3 9.495 -15.825 -12.66
9175 2 7.9125 -17.4075 -11.0775
9176 4 9.495 -15.825 -9.495
9177 2 7.9125 -17.4075 -7.9125
9178 4 9.495 -15.825 -6.33
9179 2 9.495 -15.825 -3.165
9180 3 7.9125 -17.4075 -1.5825
9181 1 9.495 -15.825 0.0
9182 4 7.9125 -17.4075 1.5825
9183 4 9.495 -15.825 3.165
9184 2 7.9125 -17.4075 4.7475
9185 3 9.495 -15.825 6.33
9186 4 7.9125 -17.4075 7.9125
9187 4 7.9125 -17.4075 11.0775
9188 2 9.495 -15.825 12.66
9189 1 7.9125 -17.4075 14.2425
9190 4 9.495 -15.825 15.825
9191 3 7.9125 -17.4075 17.4075
9192 4 9.495 -15.825 18.99
9193 1 7.9125 -17.4075 20.5725
9194 4 9.495 -15.825 22.155
9195 3 7.9125 -17.4075 23.7375
9196 3 9.495 -15.825 25.32
9197 2 7.9125 -17.4075 26.9025
9198 4 9.495 -15.825 28.485
9199 3 7.9125 -17.4075 30.0675
9200 1 9.495 -15.825 31.65
9201 4 7.9125 -14.2425 -30.0675
9202 2 9.495 -12.66 -28.485
9203 4 7.9125 -14.2425 -26.9025
9204 2 9.495 -12.66 -25.32
9205 1 7.9125 -14.2425 -23.7375
9206 1 9.495 -12.66 -22.155
9207 3 7.9125 -14.2425 -20.5725
9208 3 9.495 -12.66 -18.99
9209 1 7.9125 -14.2425 -17.4075
9210 1 9.495 -12.66 -15.825
9211 2 7.9125 -14.2425 -14.2425
9212 2 9.495 -12.66 -12.66
9213 1 7.9125 -14.2425 -11.0775
9214 2 9.495 -12.66 -9.495
9215 2 7.9125 -14.2425 -7.9125
9216 2 7.9125 -14.2425 -4.7475
9217 1 9.495 -12.66 -3.165
9218 1 7.9125 -14.2425 -1.5825
9219 4 9.495 -12.66 0.0
9220 4 7.9125 -14.2425 1.5825
9221 2 9.495 -12.66 3.165
9222 2 7.9125 -14.2425 4.7475
9223 2 9.495 -12.66 6.33
9224 2 7.9125 -14.2425 7.9125
9225 4 9.495 -12.66 9.495
9226 2 7.9125 -14.2425 11.0775
9227 4 9.495 -12.66 12.66
9228 4 7.9125 -14.2425 14.2425
9229 2 9.495 -12.66 15.825
9230 4 7.9125 -14.2425 17.4075
9231 4 9.495 -12.66 18.99
9232 3 7.9125 -14.2425 20.5725
9233 4 9.495 -12.66 22.155
9234 1 7.9125 -14.2425 23.7375
9235 1 9.495 -12.66 25.32
9236 1 7.9125 -14.2425 26.9025
9237 4 9.495 -12.66 28.485
9238 4 7.9125 -14.2425 30.0675
9239 2 9.495 -12.66 31.65
9240 4 7.9125 -11.0775 -30.0675
9241 3 9.495 -9.495 -28.485
9242 4 7.9125 -11.0775 -26.9025
9243 4 9.495 -9.495 -25.32
9244 4 7.9125 -11.0775 -23.7375
9245 4 9.495 -9.495 -22.155
9246 3 7.9125 -11.0775 -20.5725
9247 3 9.495 -9.495 -18.99
9248 1 7.9125 -11.0775 -17.4075
9249 4 9.495 -9.495 -15.825
9250 2 7.9125 -11.0775 -14.2425
9251 2 9.495 -9.495 -12.66
9252 4 7.9125 -11.0775 -11.0775
9253 4 9.495 -9.495 -9.495
9254 4 7.9125 -11.0775 -7.9125
9255 4 9.495 -9.495 -6.33
9256 3 7.9125 -11.0775 -4.7475
9257 2 9.495 -9.495 -3.165
9258 2 7.9125 -11.0775 -1.5825
9259 1 9.495 -9.495 0.0
9260 4 9.495 -9.495 3.165
9261 1 7.9125 -11.0775 4.7475
9262 1 9.495 -9.495 6.33
9263 1 7.9125 -11.0775 7.9125
9264 3 9.495 -9.495 9.495
9265 1 7.9125 -11.0775 11.0775
9266 1 9.495 -9.495 12.66
9267 4 7.9125 -11.0775 14.2425
9268 3 9.495 -9.495 15.825
9269 2 7.9125 -11.0775 17.4075
9270 3 9.495 -9.495 18.99
9271 3 7.9125 -11.0775 20.5725
9272 1 7.9125 -11.0775 23.7375
9273 3 9.495 -9.495 25.32
9274 2 7.9125 -11.0775 26.9025
9275 3 9.495 -9.495 28.485
9276 1 7.9125 -11.0775 30.0675
9277 2 9.495 -9.495 31.65
9278 4 7.9125 -7.9125 -30.0675
9279 4 9.495 -6.33 -28.485
9280 4 7.9125 -7.9125 -26.9025
9281 2 9.495 -6.33 -25.32
9282 3 9.495 -6.33 -22.155
9283 4 7.9125 -7.9125 -20.5725
9284 4 9.495 -6.33 -18.99
9285 2 7.9125 -7.9125 -17.4075
9286 4 9.495 -6.33 -15.825
9287 2 7.9125 -7.9125 -14.2425
9288 4 9.495 -6.33 -12.66
9289 2 7.9125 -7.9125 -11.0775
9290 1 9.495 -6.33 -9.495
9291 4 7.9125 -7.9125 -7.9125
9292 1 9.495 -6.33 -6.33
9293 1 7.9125 -7.9125 -4.7475
9294 4 9.495 -6.33 -3.165
9295 1 7.9125 -7.9125 -1.5825
9296 2 9.495 -6.33 0.0
9297 3 9.495 -6.33 3.165
9298 3 9.495 -6.33 6.33
9299 2 7.9125 -7.9125 7.9125
9300 1 9.495 -6.33 9.495
9301 1 7.9125 -7.9125 11.0775
9302 4 9.495 -6.33 12.66
9303 3 7.9125 -7.9125 14.2425
9304 1 7.9125 -7.9125 17.4075
9305 3 9.495 -6.33 18.99
9306 4 7.9125 -7.9125 20.5725
9307 3 9.495 -6.33 22.155
9308 4 7.9125 -7.9125 23.7375
9309 4 9.495 -6.33 25.32
9310 4 7.9125 -7.9125 26.9025
9311 2 9.495 -6.33 28.485
9312 1 9.495 -6.33 31.65
9313 2 7.9125 -4.7475 -30.0675
9314 1 9.495 -3.165 -28.485
9315 3 7.9125 -4.7475 -26.9025
9316 2 9.495 -3.165 -25.32
9317 2 7.9125 -4.7475 -23.7375
9318 3 9.495 -3.165 -22.155
9319 2 7.9125 -4.7475 -20.5725
9320 3 9.495 -3.165 -18.99
9321 4 7.9125 -4.7475 -17.4075
9322 1 9.495 -3.165 -15.825
9323 1 7.9125 -4.7475 -14.2425
9324 3 9.495 -3.165 -12.66
9325 1 7.9125 -4.7475 -11.0775
9326 3 9.495 -3.165 -9.495
9327 4 7.9125 -4.7475 -7.9125
9328 3 7.9125 -4.7475 -4.7475
9329 2 9.495 -3.165 -3.165
9330 2 7.9125 -4.7475 -1.5825
9331 1 9.495 -3.165 0.0
9332 2 7.9125 -4.7475 1.5825
9333 2 9.495 -3.165 3.165
9334 1 7.9125 -4.7475 4.7475
9335 4 9.495 -3.165 6.33
9336 1 7.9125 -4.7475 7.9125
9337 3 9.495 -3.165 9.495
9338 2 7.9125 -4.7475 11.0775
9339 2 9.495 -3.165 12.66
9340 3 7.9125 -4.7475 14.2425
9341 1 9.495 -3.165 15.825
9342 3 7.9125 -4.7475 17.4075
9343 3 9.495 -3.165 18.99
9344 4 7.9125 -4.7475 20.5725
9345 3 9.495 -3.165 22.155
9346 2 7.9125 -4.7475 23.7375
9347 1 9.495 -3.165 25.32
9348 2 7.9125 -4.7475 26.9025
9349 4 9.495 -3.165 28.485
9350 2 9.495 -3.165 31.65
9351 3 7.9125 -1.5825 -30.0675
9352 1 9.495 0.0 -28.485
9353 1 7.9125 -1.5825 -26.9025
9354 1 9.495 0.0 -25.32
9355 2 7.9125 -1.5825 -23.7375
9356 4 9.495 0.0 -22.155
9357 2 7.9125 -1.5825 -20.5725
9358 3 9.495 0.0 -18.99
9359 4 7.9125 -1.5825 -17.4075
9360 2 9.495 0.0 -15.825
9361 1 7.9125 -1.5825 -14.2425
9362 1 9.495 0.0 -12.66
9363 2 7.9125 -1.5825 -11.0775
9364 3 9.495 0.0 -9.495
9365 2 7.9125 -1.5825 -7.9125
9366 3 9.495 0.0 -6.33
9367 3 7.9125 -1.5825 -4.7475
9368 2 9.495 0.0 -3.165
9369 2 7.9125 -1.5825 -1.5825
9370 3 9.495 0.0 0.0
9371 3 7.9125 -1.5825 1.5825
9372 1 9.495 0.0 3.165
9373 3 7.9125 -1.5825 4.7475
9374 1 9.495 0.0 6.33
9375 1 7.9125 -1.5825 7.9125
9376 2 9.495 0.0 9.495
9377 3 7.9125 -1.5825 11.0775
9378 4 9.495 0.0 12.66
9379 2 7.9125 -1.5825 14.2425
9380 1 9.495 0.0 15.825
9381 2 7.9125 -1.5825 17.4075
9382 1 9.495 0.0 18.99
9383 1 7.9125 -1.5825 20.5725
9384 1 9.495 0.0 22.155
9385 2 9.495 0.0 25.32
9386 1 7.9125 -1.5825 26.9025
9387 3 9.495 0.0 28.485
9388 1 9.495 0.0 31.65
9389 4 7.9125 1.5825 -30.0675
9390 4 9.495 3.165 -28.485
9391 1 7.9125 1.5825 -26.9025
9392 3 9.495 3.165 -25.32
9393 2 7.9125 1.5825 -23.7375
9394 2 9.495 3.165 -22.155
9395 3 7.9125 1.5825 -20.5725
9396 3 9.495 3.165 -18.99
9397 4 7.9125 1.5825 -17.4075
9398 2 9.495 3.165 -15.825
9399 1 7.9125 1.5825 -14.2425
9400 3 9.495 3.165 -12.66
9401 3 7.9125 1.5825 -11.0775
9402 1 9.495 3.165 -9.495
9403 2 7.9125 1.5825 -7.9125
9404 3 9.495 3.165 -6.33
9405 1 7.9125 1.5825 -4.7475
9406 4 9.495 3.165 -3.165
9407 2 7.9125 1.5825 -1.5825
9408 1 9.495 3.165 0.0
9409 1 7.9125 1.5825 1.5825
9410 1 7.9125 1.5825 4.7475
9411 2 9.495 3.165 6.33
9412 2 7.9125 1.5825 7.9125
9413 2 9.495 3.165 9.495
9414 2 7.9125 1.5825 11.0775
9415 3 9.495 3.165 12.66
9416 4 7.9125 1.5825 14.2425
9417 2 9.495 3.165 15.825
9418 1 7.9125 1.5825 17.4075
9419 3 9.495 3.165 18.99
9420 3 7.9125 1.5825 20.5725
9421 1 9.495 3.165 22.155
9422 3 9.495 3.165 25.32
9423 2 7.9125 1.5825 26.9025
9424 3 7.9125 1.5825 30.0675
9425 4 9.495 3.165 31.65
9426 2 7.9125 4.7475 -30.0675
9427 2 7.9125 4.7475 -26.9025
9428 2 9.495 6.33 -25.32
9429 3 9.495 6.33 -22.155
9430 2 7.9125 4.7475 -20.5725
9431 3 9.495 6.33 -18.99
9432 2 7.9125 4.7475 -17.4075
9433 3 9.495 6.33 -15.825
9434 3 9.495 6.33 -12.66
9435 1 7.9125 4.7475 -11.0775
9436 4 9.495 6.33 -9.495
9437 1 7.9125 4.7475 -7.9125
9438 1 9.495 6.33 -6.33
9439 2 7.9125 4.7475 -4.7475
9440 3 9.495 6.33 -3.165
9441 3 9.495 6.33 0.0
9442 4 7.9125 4.7475 1.5825
9443 1 9.495 6.33 3.165
9444 3 7.9125 4.7475 4.7475
9445 3 9.495 6.33 6.33
9446 3 9.495 6.33 9.495
9447 1 7.9125 4.7475 11.0775
9448 3 9.495 6.33 12.66
9449 2 9.495 6.33 15.825
9450 1 7.9125 4.7475 17.4075
9451 4 9.495 6.33 18.99
9452 1 7.9125 4.7475 20.5725
9453 1 9.495 6.33 22.155
9454 2 7.9125 4.7475 23.7375
9455 1 9.495 6.33 25.32
9456 4 7.9125 4.7475 26.9025
9457 4 9.495 6.33 28.485
9458 2 7.9125 4.7475 30.0675
9459 3 9.495 6.33 31.65
9460 2 7.9125 7.9125 -30.0675
9461 3 9.495 9.495 -28.485
9462 2 7.9125 7.9125 -26.9025
9463 4 9.495 9.495 -25.32
9464 4 7.9125 7.9125 -23.7375
9465 3 9.495 9.495 -22.155
9466 1 7.9125 7.9125 -20.5725
9467 1 9.495 9.495 -18.99
9468 1 7.9125 7.9125 -17.4075
9469 2 9.495 9.495 -15.825
9470 3 7.9125 7.9125 -14.2425
9471 3 9.495 9.495 -12.66
9472 4 7.9125 7.9125 -11.0775
9473 3 9.495 9.495 -9.495
9474 1 7.9125 7.9125 -7.9125
9475 4 9.495 9.495 -6.33
9476 2 7.9125 7.9125 -4.7475
9477 4 9.495 9.495 -3.165
9478 3 7.9125 7.9125 -1.5825
9479 3 9.495 9.495 0.0
9480 3 7.9125 7.9125 1.5825
9481 3 9.495 9.495 3.165
9482 1 7.9125 7.9125 4.7475
9483 4 9.495 9.495 6.33
9484 2 7.9125 7.9125 7.9125
9485 1 9.495 9.495 9.495
9486 1 7.9125 7.9125 11.0775
9487 4 9.495 9.495 12.66
9488 2 7.9125 7.9125 14.2425
9489 3 9.495 9.495 15.825
9490 3 7.9125 7.9125 17.4075
9491 2 9.495 9.495 18.99
9492 2 9.495 9.495 22.155
9493 4 7.9125 7.9125 23.7375
9494 2 9.495 9.495 25.32
9495 4 7.9125 7.9125 26.9025
9496 3 9.495 9.495 28.485
9497 3 7.9125 7.9125 30.0675
9498 1 9.495 9.495 31.65
9499 4 9.495 12.66 -28.485
9500 1 7.9125 11.0775 -26.9025
9501 3 9.495 12.66 -25.32
9502 2 7.9125 11.0775 -23.7375
9503 2 9.495 12.66 -22.155
9504 2 9.495 12.66 -18.99
9505 2 7.9125 11.0775 -17.4075
9506 1 9.495 12.66 -15.825
9507 4 7.9125 11.0775 -14.2425
9508 3 9.495 12.66 -12.66
9509 3 7.9125 11.0775 -11.0775
9510 1 9.495 12.66 -9.495
9511 2 7.9125 11.0775 -7.9125
9512 3 9.495 12.66 -6.33
9513 2 7.9125 11.0775 -4.7475
9514 4 9.495 12.66 -3.165
9515 1 9.495 12.66 0.0
9516 2 7.9125 11.0775 1.5825
9517 4 9.495 12.66 3.165
9518 1 7.9125 11.0775 4.7475
9519 3 9.495 12.66 6.33
9520 4 7.9125 11.0775 7.9125
9521 3 9.495 12.66 9.495
9522 1 7.9125 11.0775 11.0775
9523 4 9.495 12.66 12.66
9524 4 7.9125 11.0775 14.2425
9525 4 9.495 12.66 15.825
9526 1 7.9125 11.0775 17.4075
9527 1 9.495 12.66 18.99
9528 3 7.9125 11.0775 20.5725
9529 1 9.495 12.66 22.155
9530 3 7.9125 11.0775 23.7375
9531 3 9.495 12.66 25.32
9532 3 7.9125 11.0775 26.9025
9533 1 9.495 12.66 28.485
9534 4 7.9125 11.0775 30.0675
9535 3 9.495 12.66 31.65
9536 4 7.9125 14.2425 -30.0675
9537 3 9.495 15.825 -28.485
9538 2 7.9125 14.2425 -26.9025
9539 4 9.495 15.825 -25.32
9540 3 7.9125 14.2425 -23.7375
9541 4 9.495 15.825 -22.155
9542 1 9.495 15.825 -18.99
9543 4 7.9125 14.2425 -17.4075
9544 4 9.495 15.825 -15.825
9545 1 7.9125 14.2425 -14.2425
9546 3 9.495 15.825 -12.66
9547 3 7.9125 14.2425 -11.0775
9548 1 9.495 15.825 -9.495
9549 4 7.9125 14.2425 -7.9125
9550 1 9.495 15.825 -6.33
9551 4 7.9125 14.2425 -4.7475
9552 4 9.495 15.825 -3.165
9553 4 7.9125 14.2425 -1.5825
9554 1 9.495 15.825 0.0
9555 2 7.9125 14.2425 1.5825
9556 3 9.495 15.825 3.165
9557 2 7.9125 14.2425 4.7475
9558 3 9.495 15.825 6.33
9559 1 7.9125 14.2425 7.9125
9560 3 9.495 15.825 9.495
9561 4 7.9125 14.2425 11.0775
9562 1 9.495 15.825 12.66
9563 3 7.9125 14.2425 14.2425
9564 3 9.495 15.825 15.825
9565 4 7.9125 14.2425 17.4075
9566 3 9.495 15.825 18.99
9567 2 7.9125 14.2425 20.5725
9568 2 9.495 15.825 22.155
9569 1 7.9125 14.2425 23.7375
9570 3 9.495 15.825 25.32
9571 3 7.9125 14.2425 26.9025
9572 4 9.495 15.825 28.485
9573 3 7.9125 14.2425 30.0675
9574 1 9.495 15.825 31.65
9575 2 7.9125 17.4075 -30.0675
9576 2 9.495 18.99 -28.485
9577 1 7.9125 17.4075 -26.9025
9578 4 9.495 18.99 -25.32
9579 3 7.9125 17.4075 -23.7375
9580 1 9.495 18.99 -22.155
9581 1 7.9125 17.4075 -20.5725
9582 3 9.495 18.99 -18.99
9583 4 7.9125 17.4075 -17.4075
9584 3 9.495 18.99 -15.825
9585 4 7.9125 17.4075 -14.2425
9586 2 9.495 18.99 -12.66
9587 1 7.9125 17.4075 -11.0775
9588 1 9.495 18.99 -9.495
9589 1 7.9125 17.4075 -7.9125
9590 4 9.495 18.99 -6.33
9591 4 7.9125 17.4075 -4.7475
9592 4 9.495 18.99 -3.165
9593 1 7.9125 17.4075 -1.5825
9594 3 9.495 18.99 0.0
9595 2 7.9125 17.4075 1.5825
9596 2 9.495 18.99 3.165
9597 2 7.9125 17.4075 4.7475
9598 1 9.495 18.99 6.33
9599 1 7.9125 17.4075 7.9125
9600 4 9.495 18.99 9.495
9601 3 7.9125 17.4075 11.0775
9602 3 9.495 18.99 12.66
9603 4 7.9125 17.4075 14.2425
9604 2 7.9125 17.4075 17.4075
9605 3 9.495 18.99 18.99
9606 4 7.9125 17.4075 20.5725
9607 4 9.495 18.99 22.155
9608 4 7.9125 17.4075 23.7375
9609 2 9.495 18.99 25.32
9610 1 7.9125 17.4075 26.9025
9611 1 9.495 18.99 28.485
9612 4 7.9125 17.4075 30.0675
9613 3 9.495 18.99 31.65
9614 3 7.9125 20.5725 -30.0675
9615 2 9.495 22.155 -28.485
9616 4 7.9125 20.5725 -26.9025
9617 2 9.495 22.155 -25.32
9618 2 7.9125 20.5725 -23.7375
9619 2 9.495 22.155 -22.155
9620 4 7.9125 20.5725 -20.5725
9621 1 9.495 22.155 -18.99
9622 1 7.9125 20.5725 -17.4075
9623 3 9.495 22.155 -15.825
9624 2 7.9125 20.5725 -14.2425
9625 2 9.495 22.155 -12.66
9626 1 7.9125 20.5725 -11.0775
9627 1 9.495 22.155 -9.495
9628 1 7.9125 20.5725 -7.9125
9629 2 7.9125 20.5725 -4.7475
9630 2 9.495 22.155 -3.165
9631 3 7.9125 20.5725 -1.5825
9632 4 9.495 22.155 0.0
9633 2 7.9125 20.5725 1.5825
9634 2 9.495 22.155 3.165
9635 4 7.9125 20.5725 4.7475
9636 3 9.495 22.155 6.33
9637 4 7.9125 20.5725 7.9125
9638 1 9.495 22.155 9.495
9639 4 7.9125 20.5725 11.0775
9640 2 9.495 22.155 12.66
9641 1 7.9125 20.5725 14.2425
9642 4 9.495 22.155 15.825
9643 4 7.9125 20.5725 17.4075
9644 3 9.495 22.155 18.99
9645 3 7.9125 20.5725 20.5725
9646 3 9.495 22.155 22.155
9647 1 7.9125 20.5725 23.7375
9648 2 9.495 22.155 25.32
9649 4 7.9125 20.5725 26.9025
9650 2 9.495 22.155 28.485
9651 4 7.9125 20.5725 30.0675
9652 2 9.495 22.155 31.65
9653 1 7.9125 23.7375 -30.0675
9654 4 9.495 25.32 -28.485
9655 1 7.9125 23.7375 -26.9025
9656 2 9.495 25.32 -25.32
9657 2 7.9125 23.7375 -23.7375
9658 2 9.495 25.32 -22.155
9659 4 7.9125 23.7375 -20.5725
9660 4 9.495 25.32 -18.99
9661 2 7.9125 23.7375 -17.4075
9662 2 9.495 25.32 -15.825
9663 4 7.9125 23.7375 -14.2425
9664 4 9.495 25.32 -12.66
9665 1 7.9125 23.7375 -11.0775
9666 1 9.495 25.32 -9.495
9667 4 7.9125 23.7375 -7.9125
9668 1 9.495 25.32 -6.33
9669 4 7.9125 23.7375 -4.7475
9670 3 9.495 25.32 -3.165
9671 4 7.9125 23.7375 -1.5825
9672 2 9.495 25.32 0.0
9673 2 7.9125 23.7375 1.5825
9674 3 9.495 25.32 3.165
9675 3 7.9125 23.7375 4.7475
9676 2 9.495 25.32 6.33
9677 3 7.9125 23.7375 7.9125
9678 2 9.495 25.32 9.495
9679 2 9.495 25.32 12.66
9680 2 7.9125 23.7375 14.2425
9681 3 9.495 25.32 15.825
9682 2 7.9125 23.7375 17.4075
9683 1 9.495 25.32 18.99
9684 3 7.9125 23.7375 20.5725
9685 1 9.495 25.32 22.155
9686 4 7.9125 23.7375 23.7375
9687 1 7.9125 23.7375 26.9025
9688 1 9.495 25.32 28.485
9689 2 7.9125 23.7375 30.0675
9690 1 9.495 25.32 31.65
9691 3 7.9125 26.9025 -30.0675
9692 2 9.495 28.485 -28.485
9693 4 7.9125 26.9025 -26.9025
9694 2 9.495 28.485 -25.32
9695 3 7.9125 26.9025 -23.7375
9696 4 9.495 28.485 -22.155
9697 1 7.9125 26.9025 -20.5725
9698 1 9.495 28.485 -18.99
9699 2 7.9125 26.9025 -17.4075
9700 4 9.495 28.485 -15.825
9701 4 7.9125 26.9025 -11.0775
9702 3 9.495 28.485 -9.495
9703 3 7.9125 26.9025 -7.9125
9704 4 7.9125 26.9025 -4.7475
9705 3 9.495 28.485 -3.165
9706 2 7.9125 26.9025 -1.5825
9707 4 9.495 28.485 0.0
9708 1 7.9125 26.9025 1.5825
9709 4 9.495 28.485 3.165
9710 1 7.9125 26.9025 4.7475
9711 3 9.495 28.485 6.33
9712 3 7.9125 26.9025 7.9125
9713 4 9.495 28.485 9.495
9714 1 7.9125 26.9025 11.0775
9715 3 9.495 28.485 12.66
9716 1 7.9125 26.9025 14.2425
9717 2 9.495 28.485 15.825
9718 2 7.9125 26.9025 17.4075
9719 3 9.495 28.485 18.99
9720 1 7.9125 26.9025 20.5725
9721 2 9.495 28.485 22.155
9722 1 7.9125 26.9025 23.7375
9723 2 9.495 28.485 25.32
9724 1 7.9125 26.9025 26.9025
9725 3 9.495 28.485 28.485
9726 3 7.9125 26.9025 30.0675
9727 1 9.495 28.485 31.65
9728 4 7.9125 30.0675 -30.0675
9729 1 9.495 31.65 -28.485
9730 3 7.9125 30.0675 -26.9025
9731 4 9.495 31.65 -25.32
9732 1 7.9125 30.0675 -23.7375
9733 4 9.495 31.65 -22.155
9734 2 7.9125 30.0675 -20.5725
9735 2 9.495 31.65 -18.99
9736 2 7.9125 30.0675 -17.4075
9737 3 9.495 31.65 -15.825
9738 2 7.9125 30.0675 -14.2425
9739 1 9.495 31.65 -12.66
9740 2 7.9125 30.0675 -11.0775
9741 4 7.9125 30.0675 -7.9125
9742 4 9.495 31.65 -6.33
9743 2 7.9125 30.0675 -4.7475
9744 3 9.495 31.65 -3.165
9745 2 7.9125 30.0675 -1.5825
9746 1 9.495 31.65 0.0
9747 3 7.9125 30.0675 1.5825
9748 3 9.495 31.65 3.165
9749 3 7.9125 30.0675 4.7475
9750 4 9.495 31.65 6.33
9751 4 7.9125 30.0675 7.9125
9752 1 9.495 31.65 9.495
9753 3 7.9125 30.0675 14.2425
9754 4 9.495 31.65 15.825
9755 1 7.9125 30.0675 17.4075
9756 1 9.495 31.65 18.99
9757 1 7.9125 30.0675 20.5725
9758 3 9.495 31.65 22.155
9759 2 7.9125 30.0675 23.7375
9760 4 9.495 31.65 25.32
9761 2 7.9125 30.0675 26.9025
9762 1 9.495 31.65 28.485
9763 1 9.495 31.65 31.65
9764 2 11.0775 -30.0675 -30.0675
9765 4 12.66 -28.485 -28.485
9766 2 11.0775 -30.0675 -26.9025
9767 1 12.66 -28.485 -25.32
9768 1 11.0775 -30.0675 -23.7375
9769 1 12.66 -28.485 -22.155
9770 3 11.0775 -30.0675 -20.5725
9771 3 12.66 -28.485 -18.99
9772 2 11.0775 -30.0675 -17.4075
9773 2 12.66 -28.485 -15.825
9774 3 11.0775 -30.0675 -14.2425
9775 1 12.66 -28.485 -12.66
9776 1 11.0775 -30.0675 -11.0775
9777 3 12.66 -28.485 -9.495
9778 1 11.0775 -30.0675 -7.9125
9779 3 12.66 -28.485 -6.33
9780 1 11.0775 -30.0675 -4.7475
9781 4 12.66 -28.485 -3.165
9782 4 11.0775 -30.0675 -1.5825
9783 2 12.66 -28.485 0.0
9784 3 12.66 -28.485 3.165
9785 1 11.0775 -30.0675 4.7475
9786 2 12.66 -28.485 6.33
9787 3 11.0775 -30.0675 7.9125
9788 4 12.66 -28.485 9.495
9789 4 11.0775 -30.0675 11.0775
9790 3 11.0775 -30.0675 14.2425
9791 1 12.66 -28.485 15.825
9792 3 11.0775 -30.0675 17.4075
9793 4 12.66 -28.485 18.99
9794 3 11.0775 -30.0675 20.5725
9795 3 12.66 -28.485 22.155
9796 2 11.0775 -30.0675 23.7375
9797 2 12.66 -28.485 25.32
9798 2 11.0775 -30.0675 26.9025
9799 2 11.0775 -30.0675 30.0675
9800 1 12.66 -28.485 31.65
9801 2 11.0775 -26.9025 -30.0675
9802 4 12.66 -25.32 -28.485
9803 3 11.0775 -26.9025 -26.9025
9804 1 12.66 -25.32 -25.32
9805 2 11.0775 -26.9025 -23.7375
9806 4 12.66 -25.32 -22.155
9807 1 11.0775 -26.9025 -20.5725
9808 1 11.0775 -26.9025 -17.4075
9809 4 12.66 -25.32 -15.825
9810 4 11.0775 -26.9025 -14.2425
9811 4 12.66 -25.32 -12.66
9812 1 11.0775 -26.9025 -11.0775
9813 1 12.66 -25.32 -9.495
9814 1 11.0775 -26.9025 -7.9125
9815 1 12.66 -25.32 -6.33
9816 1 12.66 -25.32 -3.165
9817 3 11.0775 -26.9025 -1.5825
9818 4 12.66 -25.32 0.0
9819 3 12.66 -25.32 3.165
9820 4 11.0775 -26.9025 4.7475
9821 4 12.66 -25.32 6.33
9822 4 11.0775 -26.9025 7.9125
9823 1 12.66 -25.32 9.495
9824 2 11.0775 -26.9025 11.0775
9825 1 12.66 -25.32 12.66
9826 3 11.0775 -26.9025 14.2425
9827 4 12.66 -25.32 15.825
9828 2 11.0775 -26.9025 17.4075
9829 1 12.66 -25.32 18.99
9830 3 11.0775 -26.9025 20.5725
9831 2 12.66 -25.32 22.155
9832 2 11.0775 -26.9025 23.7375
9833 4 12.66 -25.32 25.32
9834 1 11.0775 -26.9025 26.9025
9835 3 12.66 -25.32 28.485
9836 4 11.0775 -26.9025 30.0675
9837 2 12.66 -25.32 31.65
9838 1 11.0775 -23.7375 -30.0675
9839 1 12.66 -22.155 -28.485
9840 4 11.0775 -23.7375 -26.9025
9841 4 12.66 -22.155 -25.32
9842 3 11.0775 -23.7375 -23.7375
9843 3 12.66 -22.155 -22.155
9844 1 11.0775 -23.7375 -20.5725
9845 4 12.66 -22.155 -18.99
9846 3 11.0775 -23.7375 -17.4075
9847 2 12.66 -22.155 -15.825
9848 4 11.0775 -23.7375 -14.2425
9849 4 12.66 -22.155 -12.66
9850 1 11.0775 -23.7375 -11.0775
9851 1 12.66 -22.155 -9.495
9852 1 11.0775 -23.7375 -7.9125
9853 1 12.66 -22.155 -6.33
9854 4 11.0775 -23.7375 -4.7475
9855 1 12.66 -22.155 -3.165
9856 3 11.0775 -23.7375 -1.5825
9857 3 12.66 -22.155 0.0
9858 4 11.0775 -23.7375 1.5825
9859 4 12.66 -22.155 3.165
9860 2 11.0775 -23.7375 4.7475
9861 4 12.66 -22.155 6.33
9862 1 11.0775 -23.7375 7.9125
9863 2 12.66 -22.155 9.495
9864 3 11.0775 -23.7375 11.0775
9865 1 12.66 -22.155 12.66
9866 1 11.0775 -23.7375 14.2425
9867 4 12.66 -22.155 15.825
9868 3 11.0775 -23.7375 17.4075
9869 2 12.66 -22.155 18.99
9870 1 11.0775 -23.7375 20.5725
9871 3 12.66 -22.155 22.155
9872 3 11.0775 -23.7375 23.7375
9873 1 12.66 -22.155 25.32
9874 3 11.0775 -23.7375 26.9025
9875 2 12.66 -22.155 28.485
9876 3 11.0775 -23.7375 30.0675
9877 2 12.66 -22.155 31.65
9878 2 11.0775 -20.5725 -30.0675
9879 4 12.66 -18.99 -28.485
9880 4 11.0775 -20.5725 -26.9025
9881 2 12.66 -18.99 -25.32
9882 1 11.0775 -20.5725 -23.7375
9883 4 12.66 -18.99 -22.155
9884 4 11.0775 -20.5725 -20.5725
9885 3 12.66 -18.99 -18.99
9886 1 11.0775 -20.5725 -17.4075
9887 2 12.66 -18.99 -15.825
9888 1 11.0775 -20.5725 -14.2425
9889 2 12.66 -18.99 -12.66
9890 1 11.0775 -20.5725 -11.0775
9891 2 12.66 -18.99 -9.495
9892 1 11.0775 -20.5725 -7.9125
9893 2 12.66 -18.99 -6.33
9894 3 11.0775 -20.5725 -4.7475
9895 2 12.66 -18.99 -3.165
9896 1 11.0775 -20.5725 -1.5825
9897 4 12.66 -18.99 0.0
9898 3 11.0775 -20.5725 1.5825
9899 1 12.66 -18.99 3.165
9900 1 11.0775 -20.5725 4.7475
9901 3 12.66 -18.99 6.33
9902 2 11.0775 -20.5725 7.9125
9903 3 12.66 -18.99 9.495
9904 2 11.0775 -20.5725 11.0775
9905 3 12.66 -18.99 12.66
9906 3 12.66 -18.99 15.825
9907 4 11.0775 -20.5725 17.4075
9908 4 12.66 -18.99 18.99
9909 1 11.0775 -20.5725 20.5725
9910 1 12.66 -18.99 22.155
9911 3 11.0775 -20.5725 23.7375
9912 1 12.66 -18.99 25.32
9913 1 11.0775 -20.5725 26.9025
9914 2 12.66 -18.99 28.485
9915 2 11.0775 -20.5725 30.0675
9916 1 12.66 -18.99 31.65
9917 1 11.0775 -17.4075 -30.0675
9918 4 12.66 -15.825 -28.485
9919 3 11.0775 -17.4075 -26.9025
9920 1 12.66 -15.825 -25.32
9921 1 12.66 -15.825 -22.155
9922 1 11.0775 -17.4075 -20.5725
9923 4 12.66 -15.825 -18.99
9924 4 11.0775 -17.4075 -17.4075
9925 4 12.66 -15.825 -15.825
9926 4 11.0775 -17.4075 -14.2425
9927 1 12.66 -15.825 -12.66
9928 1 11.0775 -17.4075 -11.0775
9929 4 12.66 -15.825 -9.495
9930 3 11.0775 -17.4075 -7.9125
9931 4 12.66 -15.825 -6.33
9932 3 11.0775 -17.4075 -4.7475
9933 4 12.66 -15.825 -3.165
9934 1 11.0775 -17.4075 -1.5825
9935 1 12.66 -15.825 0.0
9936 1 11.0775 -17.4075 1.5825
9937 4 12.66 -15.825 3.165
9938 3 11.0775 -17.4075 4.7475
9939 3 12.66 -15.825 6.33
9940 2 11.0775 -17.4075 7.9125
9941 4 12.66 -15.825 9.495
9942 2 11.0775 -17.4075 11.0775
9943 3 12.66 -15.825 12.66
9944 4 11.0775 -17.4075 14.2425
9945 3 12.66 -15.825 15.825
9946 1 11.0775 -17.4075 17.4075
9947 2 12.66 -15.825 18.99
9948 3 11.0775 -17.4075 20.5725
9949 3 12.66 -15.825 22.155
9950 4 11.0775 -17.4075 23.7375
9951 4 12.66 -15.825 25.32
9952 4 11.0775 -17.4075 26.9025
9953 1 12.66 -15.825 28.485
9954 1 11.0775 -17.4075 30.0675
9955 1 12.66 -15.825 31.65
9956 4 11.0775 -14.2425 -30.0675
9957 1 12.66 -12.66 -28.485
9958 3 11.0775 -14.2425 -26.9025
9959 2 12.66 -12.66 -25.32
9960 2 11.0775 -14.2425 -23.7375
9961 4 12.66 -12.66 -22.155
9962 3 11.0775 -14.2425 -20.5725
9963 4 12.66 -12.66 -18.99
9964 3 11.0775 -14.2425 -17.4075
9965 1 12.66 -12.66 -15.825
9966 3 11.0775 -14.2425 -14.2425
9967 4 12.66 -12.66 -12.66
9968 1 11.0775 -14.2425 -11.0775
9969 4 12.66 -12.66 -9.495
9970 2 11.0775 -14.2425 -7.9125
9971 4 12.66 -12.66 -6.33
9972 3 11.0775 -14.2425 -4.7475
9973 3 11.0775 -14.2425 -1.5825
9974 2 11.0775 -14.2425 1.5825
9975 2 12.66 -12.66 3.165
9976 1 11.0775 -14.2425 4.7475
9977 2 12.66 -12.66 6.33
9978 2 11.0775 -14.2425 7.9125
9979 1 12.66 -12.66 9.495
9980 4 11.0775 -14.2425 11.0775
9981 1 12.66 -12.66 12.66
9982 1 11.0775 -14.2425 14.2425
9983 1 11.0775 -14.2425 17.4075
9984 1 12.66 -12.66 18.99
9985 3 11.0775 -14.2425 20.5725
9986 4 12.66 -12.66 22.155
9987 1 11.0775 -14.2425 23.7375
9988 1 12.66 -12.66 25.32
9989 2 11.0775 -14.2425 26.9025
9990 2 12.66 -12.66 28.485
9991 1 11.0775 -14.2425 30.0675
9992 4 12.66 -12.66 31.65
9993 1 11.0775 -11.0775 -30.0675
9994 2 12.66 -9.495 -28.485
9995 1 11.0775 -11.0775 -26.9025
9996 4 12.66 -9.495 -25.32
9997 1 11.0775 -11.0775 -23.7375
9998 1 12.66 -9.495 -22.155
9999 1 11.0775 -11.0775 -20.5725
10000 1 12.66 -9.495 -18.99
10001 1 11.0775 -11.0775 -17.4075
10002 3 12.66 -9.495 -15.825
10003 4 12.66 -9.495 -12.66
10004 4 11.0775 -11.0775 -11.0775
10005 4 12.66 -9.495 -9.495
10006 2 11.0775 -11.0775 -7.9125
10007 4 12.66 -9.495 -6.33
10008 2 11.0775 -11.0775 -4.7475
10009 4 12.66 -9.495 -3.165
10010 4 11.0775 -11.0775 -1.5825
10011 1 12.66 -9.495 0.0
10012 3 11.0775 -11.0775 1.5825
10013 3 12.66 -9.495 3.165
10014 3 11.0775 -11.0775 4.7475
10015 4 12.66 -9.495 6.33
10016 3 11.0775 -11.0775 7.9125
10017 1 12.66 -9.495 9.495
10018 2 11.0775 -11.0775 11.0775
10019 3 12.66 -9.495 12.66
10020 1 11.0775 -11.0775 14.2425
10021 4 12.66 -9.495 15.825
10022 1 11.0775 -11.0775 17.4075
10023 3 12.66 -9.495 18.99
10024 1 11.0775 -11.0775 20.5725
10025 3 12.66 -9.495 22.155
10026 3 11.0775 -11.0775 23.7375
10027 2 12.66 -9.495 25.32
10028 2 11.0775 -11.0775 26.9025
10029 4 12.66 -9.495 28.485
10030 3 11.0775 -11.0775 30.0675
10031 4 12.66 -9.495 31.65
10032 2 11.0775 -7.9125 -30.0675
10033 3 11.0775 -7.9125 -26.9025
10034 3 12.66 -6.33 -25.32
10035 1 11.0775 -7.9125 -23.7375
10036 1 12.66 -6.33 -22.155
10037 1 12.66 -6.33 -18.99
10038 2 11.0775 -7.9125 -17.4075
10039 4 12.66 -6.33 -15.825
10040 3 11.0775 -7.9125 -14.2425
10041 2 12.66 -6.33 -12.66
10042 2 11.0775 -7.9125 -11.0775
10043 1 12.66 -6.33 -9.495
10044 1 11.0775 -7.9125 -7.9125
10045 1 12.66 -6.33 -6.33
10046 2 11.0775 -7.9125 -4.7475
10047 1 11.0775 -7.9125 -1.5825
10048 4 12.66 -6.33 0.0
10049 4 11.0775 -7.9125 1.5825
10050 3 12.66 -6.33 3.165
10051 4 11.0775 -7.9125 4.7475
10052 1 12.66 -6.33 6.33
10053 2 11.0775 -7.9125 7.9125
10054 2 12.66 -6.33 9.495
10055 2 11.0775 -7.9125 11.0775
10056 4 12.66 -6.33 12.66
10057 3 11.0775 -7.9125 14.2425
10058 4 12.66 -6.33 15.825
10059 4 11.0775 -7.9125 17.4075
10060 2 12.66 -6.33 18.99
10061 1 11.0775 -7.9125 20.5725
10062 3 12.66 -6.33 22.155
10063 1 11.0775 -7.9125 23.7375
10064 2 12.66 -6.33 25.32
10065 2 11.0775 -7.9125 26.9025
10066 3 12.66 -6.33 28.485
10067 1 11.0775 -7.9125 30.0675
10068 1 12.66 -6.33 31.65
10069 4 11.0775 -4.7475 -30.0675
10070 1 12.66 -3.165 -28.485
10071 4 11.0775 -4.7475 -26.9025
10072 4 12.66 -3.165 -25.32
10073 2 11.0775 -4.7475 -23.7375
10074 4 11.0775 -4.7475 -20.5725
10075 1 12.66 -3.165 -18.99
10076 4 11.0775 -4.7475 -17.4075
10077 1 12.66 -3.165 -15.825
10078 1 11.0775 -4.7475 -14.2425
10079 4 12.66 -3.165 -12.66
10080 3 11.0775 -4.7475 -11.0775
10081 4 12.66 -3.165 -9.495
10082 2 11.0775 -4.7475 -7.9125
10083 4 12.66 -3.165 -6.33
10084 3 11.0775 -4.7475 -4.7475
10085 4 12.66 -3.165 -3.165
10086 3 11.0775 -4.7475 -1.5825
10087 4 12.66 -3.165 0.0
10088 1 11.0775 -4.7475 1.5825
10089 3 12.66 -3.165 3.165
10090 3 11.0775 -4.7475 4.7475
10091 3 12.66 -3.165 6.33
10092 2 11.0775 -4.7475 7.9125
10093 2 12.66 -3.165 9.495
10094 2 11.0775 -4.7475 11.0775
10095 2 12.66 -3.165 12.66
10096 2 11.0775 -4.7475 14.2425
10097 3 12.66 -3.165 15.825
10098 3 11.0775 -4.7475 17.4075
10099 1 12.66 -3.165 18.99
10100 1 11.0775 -4.7475 20.5725
10101 4 12.66 -3.165 22.155
10102 2 11.0775 -4.7475 23.7375
10103 4 12.66 -3.165 25.32
10104 3 11.0775 -4.7475 26.9025
10105 4 12.66 -3.165 28.485
10106 2 11.0775 -4.7475 30.0675
10107 3 12.66 -3.165 31.65
10108 4 11.0775 -1.5825 -30.0675
10109 1 12.66 0.0 -28.485
10110 4 11.0775 -1.5825 -26.9025
10111 2 12.66 0.0 -25.32
10112 2 11.0775 -1.5825 -23.7375
10113 1 12.66 0.0 -22.155
10114 2 11.0775 -1.5825 -20.5725
10115 2 12.66 0.0 -18.99
10116 1 11.0775 -1.5825 -17.4075
10117 2 12.66 0.0 -15.825
10118 3 11.0775 -1.5825 -14.2425
10119 3 11.0775 -1.5825 -11.0775
10120 1 12.66 0.0 -9.495
10121 2 11.0775 -1.5825 -7.9125
10122 3 12.66 0.0 -6.33
10123 3 11.0775 -1.5825 -4.7475
10124 2 12.66 0.0 -3.165
10125 4 11.0775 -1.5825 -1.5825
10126 2 12.66 0.0 0.0
10127 4 11.0775 -1.5825 1.5825
10128 1 11.0775 -1.5825 4.7475
10129 1 12.66 0.0 6.33
10130 3 11.0775 -1.5825 7.9125
10131 4 12.66 0.0 9.495
10132 1 11.0775 -1.5825 11.0775
10133 3 12.66 0.0 12.66
10134 4 11.0775 -1.5825 14.2425
10135 2 12.66 0.0 15.825
10136 2 11.0775 -1.5825 17.4075
10137 4 12.66 0.0 18.99
10138 3 12.66 0.0 22.155
10139 2 11.0775 -1.5825 23.7375
10140 1 12.66 0.0 25.32
10141 4 11.0775 -1.5825 26.9025
10142 4 12.66 0.0 28.485
10143 4 11.0775 -1.5825 30.0675
10144 4 12.66 0.0 31.65
10145 3 11.0775 1.5825 -30.0675
10146 1 12.66 3.165 -28.485
10147 3 11.0775 1.5825 -26.9025
10148 1 12.66 3.165 -25.32
10149 4 11.0775 1.5825 -23.7375
10150 2 12.66 3.165 -22.155
10151 2 11.0775 1.5825 -20.5725
10152 2 11.0775 1.5825 -17.4075
10153 1 12.66 3.165 -15.825
10154 3 11.0775 1.5825 -14.2425
10155 1 12.66 3.165 -12.66
10156 1 11.0775 1.5825 -11.0775
10157 4 12.66 3.165 -9.495
10158 4 11.0775 1.5825 -7.9125
10159 3 12.66 3.165 -6.33
10160 2 11.0775 1.5825 -4.7475
10161 2 12.66 3.165 -3.165
10162 3 11.0775 1.5825 -1.5825
10163 2 12.66 3.165 0.0
10164 1 11.0775 1.5825 1.5825
10165 2 12.66 3.165 3.165
10166 4 11.0775 1.5825 4.7475
10167 3 12.66 3.165 6.33
10168 3 11.0775 1.5825 7.9125
10169 2 12.66 3.165 9.495
10170 1 11.0775 1.5825 11.0775
10171 2 12.66 3.165 12.66
10172 1 12.66 3.165 15.825
10173 2 11.0775 1.5825 17.4075
10174 3 12.66 3.165 18.99
10175 1 11.0775 1.5825 20.5725
10176 1 12.66 3.165 22.155
10177 1 11.0775 1.5825 23.7375
10178 1 12.66 3.165 25.32
10179 4 11.0775 1.5825 26.9025
10180 2 12.66 3.165 28.485
10181 3 11.0775 1.5825 30.0675
10182 3 12.66 3.165 31.65
10183 2 11.0775 4.7475 -30.0675
10184 1 12.66 6.33 -28.485
10185 4 12.66 6.33 -25.32
10186 4 11.0775 4.7475 -23.7375
10187 3 12.66 6.33 -22.155
10188 3 11.0775 4.7475 -20.5725
10189 2 12.66 6.33 -18.99
10190 3 11.0775 4.7475 -17.4075
10191 2 12.66 6.33 -15.825
10192 3 11.0775 4.7475 -14.2425
10193 2 12.66 6.33 -12.66
10194 2 11.0775 4.7475 -11.0775
10195 1 12.66 6.33 -9.495
10196 4 11.0775 4.7475 -7.9125
10197 1 12.66 6.33 -6.33
10198 1 11.0775 4.7475 -4.7475
10199 1 12.66 6.33 -3.165
10200 1 11.0775 4.7475 -1.5825
10201 4 12.66 6.33 0.0
10202 1 11.0775 4.7475 1.5825
10203 1 12.66 6.33 3.165
10204 4 11.0775 4.7475 4.7475
10205 1 12.66 6.33 6.33
10206 4 11.0775 4.7475 7.9125
10207 1 12.66 6.33 9.495
10208 2 11.0775 4.7475 11.0775
10209 1 12.66 6.33 12.66
10210 1 11.0775 4.7475 14.2425
10211 1 12.66 6.33 15.825
10212 1 11.0775 4.7475 17.4075
10213 2 12.66 6.33 18.99
10214 1 11.0775 4.7475 20.5725
10215 1 11.0775 4.7475 23.7375
10216 4 12.66 6.33 25.32
10217 3 11.0775 4.7475 26.9025
10218 4 12.66 6.33 28.485
10219 1 11.0775 4.7475 30.0675
10220 1 12.66 6.33 31.65
10221 1 11.0775 7.9125 -30.0675
10222 4 12.66 9.495 -28.485
10223 3 11.0775 7.9125 -26.9025
10224 2 12.66 9.495 -25.32
10225 1 11.0775 7.9125 -23.7375
10226 3 12.66 9.495 -22.155
10227 1 11.0775 7.9125 -20.5725
10228 4 12.66 9.495 -18.99
10229 4 11.0775 7.9125 -17.4075
10230 1 12.66 9.495 -15.825
10231 2 11.0775 7.9125 -14.2425
10232 4 12.66 9.495 -12.66
10233 4 11.0775 7.9125 -11.0775
10234 3 12.66 9.495 -9.495
10235 2 11.0775 7.9125 -7.9125
10236 2 12.66 9.495 -6.33
10237 4 11.0775 7.9125 -4.7475
10238 4 12.66 9.495 -3.165
10239 4 11.0775 7.9125 -1.5825
10240 3 11.0775 7.9125 1.5825
10241 2 12.66 9.495 3.165
10242 4 11.0775 7.9125 4.7475
10243 3 12.66 9.495 6.33
10244 1 11.0775 7.9125 7.9125
10245 4 12.66 9.495 9.495
10246 2 11.0775 7.9125 11.0775
10247 1 11.0775 7.9125 14.2425
10248 3 12.66 9.495 15.825
10249 2 11.0775 7.9125 17.4075
10250 1 12.66 9.495 18.99
10251 3 11.0775 7.9125 20.5725
10252 1 12.66 9.495 22.155
10253 2 11.0775 7.9125 23.7375
10254 1 12.66 9.495 25.32
10255 4 11.0775 7.9125 26.9025
10256 3 12.66 9.495 28.485
10257 2 11.0775 7.9125 30.0675
10258 4 12.66 9.495 31.65
10259 3 11.0775 11.0775 -30.0675
10260 3 12.66 12.66 -28.485
10261 1 11.0775 11.0775 -26.9025
10262 1 12.66 12.66 -25.32
10263 1 11.0775 11.0775 -23.7375
10264 3 12.66 12.66 -22.155
10265 1 11.0775 11.0775 -20.5725
10266 2 12.66 12.66 -18.99
10267 2 12.66 12.66 -15.825
10268 4 11.0775 11.0775 -14.2425
10269 2 12.66 12.66 -12.66
10270 2 11.0775 11.0775 -11.0775
10271 1 12.66 12.66 -9.495
10272 2 11.0775 11.0775 -7.9125
10273 3 12.66 12.66 -6.33
10274 4 12.66 12.66 -3.165
10275 4 11.0775 11.0775 -1.5825
10276 3 12.66 12.66 0.0
10277 4 11.0775 11.0775 1.5825
10278 4 12.66 12.66 3.165
10279 4 11.0775 11.0775 4.7475
10280 2 12.66 12.66 6.33
10281 1 11.0775 11.0775 7.9125
10282 3 12.66 12.66 9.495
10283 4 11.0775 11.0775 11.0775
10284 1 12.66 12.66 12.66
10285 4 11.0775 11.0775 14.2425
10286 3 12.66 12.66 15.825
10287 2 11.0775 11.0775 17.4075
10288 4 12.66 12.66 18.99
10289 3 11.0775 11.0775 20.5725
10290 3 12.66 12.66 22.155
10291 3 11.0775 11.0775 23.7375
10292 3 12.66 12.66 25.32
10293 3 11.0775 11.0775 26.9025
10294 2 12.66 12.66 28.485
10295 4 11.0775 11.0775 30.0675
10296 4 12.66 12.66 31.65
10297 4 11.0775 14.2425 -30.0675
10298 4 12.66 15.825 -28.485
10299 2 11.0775 14.2425 -26.9025
10300 3 12.66 15.825 -25.32
10301 3 11.0775 14.2425 -23.7375
10302 3 12.66 15.825 -22.155
10303 3 11.0775 14.2425 -20.5725
10304 2 12.66 15.825 -18.99
10305 4 11.0775 14.2425 -17.4075
10306 4 12.66 15.825 -15.825
10307 4 11.0775 14.2425 -14.2425
10308 1 12.66 15.825 -12.66
10309 4 11.0775 14.2425 -11.0775
10310 3 12.66 15.825 -9.495
10311 3 11.0775 14.2425 -7.9125
10312 4 12.66 15.825 -6.33
10313 1 11.0775 14.2425 -4.7475
10314 3 12.66 15.825 -3.165
10315 4 11.0775 14.2425 -1.5825
10316 4 12.66 15.825 0.0
10317 3 11.0775 14.2425 1.5825
10318 2 12.66 15.825 3.165
10319 3 11.0775 14.2425 4.7475
10320 4 12.66 15.825 6.33
10321 4 11.0775 14.2425 7.9125
10322 2 12.66 15.825 9.495
10323 2 11.0775 14.2425 11.0775
10324 3 12.66 15.825 12.66
10325 1 11.0775 14.2425 14.2425
10326 2 12.66 15.825 15.825
10327 1 11.0775 14.2425 17.4075
10328 1 12.66 15.825 18.99
10329 3 11.0775 14.2425 20.5725
10330 4 12.66 15.825 22.155
10331 3 11.0775 14.2425 23.7375
10332 1 11.0775 14.2425 26.9025
10333 2 12.66 15.825 28.485
10334 2 11.0775 14.2425 30.0675
10335 3 12.66 15.825 31.65
10336 1 11.0775 17.4075 -30.0675
10337 4 12.66 18.99 -28.485
10338 1 11.0775 17.4075 -26.9025
10339 1 12.66 18.99 -25.32
10340 1 11.0775 17.4075 -23.7375
10341 2 12.66 18.99 -22.155
10342 4 12.66 18.99 -18.99
10343 1 11.0775 17.4075 -17.4075
10344 4 12.66 18.99 -15.825
10345 1 11.0775 17.4075 -14.2425
10346 1 12.66 18.99 -12.66
10347 3 11.0775 17.4075 -11.0775
10348 1 12.66 18.99 -9.495
10349 3 11.0775 17.4075 -7.9125
10350 3 12.66 18.99 -6.33
10351 2 11.0775 17.4075 -4.7475
10352 3 12.66 18.99 -3.165
10353 1 11.0775 17.4075 -1.5825
10354 1 12.66 18.99 0.0
10355 4 11.0775 17.4075 1.5825
10356 1 12.66 18.99 3.165
10357 1 11.0775 17.4075 4.7475
10358 1 12.66 18.99 6.33
10359 1 11.0775 17.4075 7.9125
10360 2 12.66 18.99 9.495
10361 4 11.0775 17.4075 11.0775
10362 4 12.66 18.99 12.66
10363 4 11.0775 17.4075 14.2425
10364 4 12.66 18.99 15.825
10365 1 11.0775 17.4075 17.4075
10366 4 12.66 18.99 18.99
10367 1 11.0775 17.4075 20.5725
10368 4 12.66 18.99 22.155
10369 4 11.0775 17.4075 23.7375
10370 4 11.0775 17.4075 26.9025
10371 1 12.66 18.99 28.485
10372 1 11.0775 17.4075 30.0675
10373 2 12.66 18.99 31.65
10374 1 11.0775 20.5725 -30.0675
10375 2 12.66 22.155 -28.485
10376 4 11.0775 20.5725 -26.9025
10377 2 12.66 22.155 -25.32
10378 2 11.0775 20.5725 -23.7375
10379 2 12.66 22.155 -22.155
10380 3 11.0775 20.5725 -20.5725
10381 1 12.66 22.155 -18.99
10382 4 11.0775 20.5725 -17.4075
10383 4 12.66 22.155 -15.825
10384 2 11.0775 20.5725 -14.2425
10385 1 12.66 22.155 -12.66
10386 4 11.0775 20.5725 -11.0775
10387 1 12.66 22.155 -9.495
10388 3 11.0775 20.5725 -7.9125
10389 3 12.66 22.155 -6.33
10390 2 11.0775 20.5725 -4.7475
10391 4 12.66 22.155 -3.165
10392 4 11.0775 20.5725 -1.5825
10393 3 11.0775 20.5725 1.5825
10394 1 12.66 22.155 3.165
10395 3 12.66 22.155 6.33
10396 3 11.0775 20.5725 7.9125
10397 2 12.66 22.155 9.495
10398 2 11.0775 20.5725 11.0775
10399 3 12.66 22.155 12.66
10400 3 11.0775 20.5725 14.2425
10401 2 12.66 22.155 15.825
10402 3 11.0775 20.5725 17.4075
10403 4 12.66 22.155 18.99
10404 4 11.0775 20.5725 20.5725
10405 1 12.66 22.155 22.155
10406 4 11.0775 20.5725 23.7375
10407 2 12.66 22.155 25.32
10408 2 11.0775 20.5725 26.9025
10409 1 12.66 22.155 28.485
10410 4 11.0775 20.5725 30.0675
10411 1 12.66 22.155 31.65
10412 4 11.0775 23.7375 -30.0675
10413 1 12.66 25.32 -28.485
10414 3 11.0775 23.7375 -26.9025
10415 2 12.66 25.32 -25.32
10416 3 11.0775 23.7375 -23.7375
10417 4 12.66 25.32 -22.155
10418 3 11.0775 23.7375 -20.5725
10419 3 12.66 25.32 -18.99
10420 1 11.0775 23.7375 -17.4075
10421 1 12.66 25.32 -15.825
10422 1 11.0775 23.7375 -14.2425
10423 3 11.0775 23.7375 -11.0775
10424 3 12.66 25.32 -9.495
10425 3 11.0775 23.7375 -7.9125
10426 2 12.66 25.32 -6.33
10427 2 11.0775 23.7375 -4.7475
10428 1 12.66 25.32 -3.165
10429 1 11.0775 23.7375 -1.5825
10430 3 12.66 25.32 0.0
10431 2 11.0775 23.7375 1.5825
10432 4 12.66 25.32 3.165
10433 1 11.0775 23.7375 4.7475
10434 2 12.66 25.32 6.33
10435 2 11.0775 23.7375 7.9125
10436 2 12.66 25.32 9.495
10437 2 11.0775 23.7375 11.0775
10438 1 12.66 25.32 12.66
10439 3 11.0775 23.7375 14.2425
10440 1 11.0775 23.7375 17.4075
10441 2 12.66 25.32 18.99
10442 2 11.0775 23.7375 20.5725
10443 2 12.66 25.32 22.155
10444 1 11.0775 23.7375 23.7375
10445 1 12.66 25.32 25.32
10446 4 11.0775 23.7375 26.9025
10447 2 12.66 25.32 28.485
10448 1 11.0775 23.7375 30.0675
10449 2 12.66 25.32 31.65
10450 1 11.0775 26.9025 -30.0675
10451 4 12.66 28.485 -28.485
10452 4 11.0775 26.9025 -26.9025
10453 2 12.66 28.485 -25.32
10454 4 11.0775 26.9025 -23.7375
10455 4 12.66 28.485 -22.155
10456 4 11.0775 26.9025 -20.5725
10457 2 12.66 28.485 -18.99
10458 2 11.0775 26.9025 -17.4075
10459 4 12.66 28.485 -15.825
10460 2 11.0775 26.9025 -14.2425
10461 4 12.66 28.485 -12.66
10462 2 11.0775 26.9025 -11.0775
10463 2 12.66 28.485 -9.495
10464 4 11.0775 26.9025 -7.9125
10465 2 12.66 28.485 -6.33
10466 4 11.0775 26.9025 -4.7475
10467 1 12.66 28.485 -3.165
10468 2 11.0775 26.9025 -1.5825
10469 1 12.66 28.485 0.0
10470 1 11.0775 26.9025 1.5825
10471 2 12.66 28.485 3.165
10472 1 11.0775 26.9025 4.7475
10473 1 12.66 28.485 6.33
10474 2 11.0775 26.9025 7.9125
10475 1 12.66 28.485 9.495
10476 4 11.0775 26.9025 11.0775
10477 4 12.66 28.485 12.66
10478 1 11.0775 26.9025 14.2425
10479 4 12.66 28.485 15.825
10480 4 11.0775 26.9025 17.4075
10481 4 12.66 28.485 18.99
10482 1 12.66 28.485 22.155
10483 3 11.0775 26.9025 23.7375
10484 4 12.66 28.485 25.32
10485 1 11.0775 26.9025 26.9025
10486 1 12.66 28.485 28.485
10487 4 11.0775 26.9025 30.0675
10488 1 12.66 28.485 31.65
10489 4 11.0775 30.0675 -30.0675
10490 1 12.66 31.65 -28.485
10491 4 11.0775 30.0675 -26.9025
10492 3 12.66 31.65 -25.32
10493 2 11.0775 30.0675 -23.7375
10494 3 12.66 31.65 -22.155
10495 3 11.0775 30.0675 -20.5725
10496 1 12.66 31.65 -18.99
10497 4 11.0775 30.0675 -17.4075
10498 2 12.66 31.65 -15.825
10499 1 11.0775 30.0675 -14.2425
10500 4 12.66 31.65 -12.66
10501 2 12.66 31.65 -9.495
10502 2 11.0775 30.0675 -7.9125
10503 3 12.66 31.65 -6.33
10504 1 11.0775 30.0675 -4.7475
10505 3 12.66 31.65 -3.165
10506 2 11.0775 30.0675 -1.5825
10507 4 12.66 31.65 0.0
10508 3 11.0775 30.0675 1.5825
10509 4 12.66 31.65 3.165
10510 2 11.0775 30.0675 4.7475
10511 3 12.66 31.65 6.33
10512 4 11.0775 30.0675 7.9125
10513 3 12.66 31.65 9.495
10514 1 11.0775 30.0675 11.0775
10515 2 12.66 31.65 12.66
10516 1 11.0775 30.0675 14.2425
10517 1 12.66 31.65 15.825
10518 1 11.0775 30.0675 17.4075
10519 1 12.66 31.65 18.99
10520 3 11.0775 30.0675 20.5725
10521 4 12.66 31.65 22.155
10522 4 11.0775 30.0675 23.7375
10523 1 11.0775 30.0675 26.9025
10524 1 12.66 31.65 28.485
10525 4 11.0775 30.0675 30.0675
10526 3 12.66 31.65 31.65
10527 4 14.2425 -30.0675 -30.0675
10528 4 15.825 -28.485 -28.485
10529 2 14.2425 -30.0675 -26.9025
10530 2 15.825 -28.485 -25.32
10531 2 14.2425 -30.0675 -23.7375
10532 4 15.825 -28.485 -22.155
10533 1 15.825 -28.485 -18.99
10534 4 14.2425 -30.0675 -17.4075
10535 4 15.825 -28.485 -15.825
10536 1 14.2425 -30.0675 -14.2425
10537 3 15.825 -28.485 -12.66
10538 3 14.2425 -30.0675 -11.0775
10539 2 15.825 -28.485 -9.495
10540 3 14.2425 -30.0675 -7.9125
10541 4 15.825 -28.485 -6.33
10542 4 14.2425 -30.0675 -4.7475
10543 1 15.825 -28.485 -3.165
10544 1 14.2425 -30.0675 -1.5825
10545 4 15.825 -28.485 0.0
10546 1 14.2425 -30.0675 1.5825
10547 1 15.825 -28.485 3.165
10548 3 14.2425 -30.0675 4.7475
10549 1 15.825 -28.485 6.33
10550 3 14.2425 -30.0675 7.9125
10551 1 15.825 -28.485 9.495
10552 3 14.2425 -30.0675 11.0775
10553 3 15.825 -28.485 12.66
10554 3 14.2425 -30.0675 14.2425
10555 3 15.825 -28.485 15.825
10556 2 14.2425 -30.0675 17.4075
10557 3 15.825 -28.485 18.99
10558 2 14.2425 -30.0675 20.5725
10559 3 15.825 -28.485 22.155
10560 1 14.2425 -30.0675 23.7375
10561 4 15.825 -28.485 25.32
10562 2 14.2425 -30.0675 26.9025
10563 2 15.825 -28.485 28.485
10564 3 15.825 -28.485 31.65
10565 2 14.2425 -26.9025 -30.0675
10566 2 15.825 -25.32 -28.485
10567 4 14.2425 -26.9025 -26.9025
10568 3 15.825 -25.32 -25.32
10569 3 14.2425 -26.9025 -23.7375
10570 2 15.825 -25.32 -22.155
10571 1 14.2425 -26.9025 -20.5725
10572 2 15.825 -25.32 -18.99
10573 3 14.2425 -26.9025 -17.4075
10574 3 15.825 -25.32 -15.825
10575 2 14.2425 -26.9025 -14.2425
10576 4 15.825 -25.32 -12.66
10577 1 14.2425 -26.9025 -11.0775
10578 1 15.825 -25.32 -9.495
10579 4 14.2425 -26.9025 -7.9125
10580 2 15.825 -25.32 -6.33
10581 3 14.2425 -26.9025 -4.7475
10582 4 15.825 -25.32 -3.165
10583 4 14.2425 -26.9025 -1.5825
10584 3 15.825 -25.32 0.0
10585 1 14.2425 -26.9025 1.5825
10586 4 15.825 -25.32 3.165
10587 1 14.2425 -26.9025 4.7475
10588 3 15.825 -25.32 6.33
10589 4 14.2425 -26.9025 7.9125
10590 2 15.825 -25.32 9.495
10591 4 14.2425 -26.9025 11.0775
10592 1 15.825 -25.32 12.66
10593 2 14.2425 -26.9025 14.2425
10594 3 15.825 -25.32 15.825
10595 2 14.2425 -26.9025 17.4075
10596 2 15.825 -25.32 18.99
10597 1 15.825 -25.32 22.155
10598 2 14.2425 -26.9025 23.7375
10599 4 15.825 -25.32 25.32
10600 4 14.2425 -26.9025 26.9025
10601 3 15.825 -25.32 28.485
10602 3 14.2425 -26.9025 30.0675
10603 4 15.825 -25.32 31.65
10604 4 15.825 -22.155 -28.485
10605 3 14.2425 -23.7375 -26.9025
10606 4 15.825 -22.155 -25.32
10607 2 14.2425 -23.7375 -23.7375
10608 3 15.825 -22.155 -22.155
10609 1 14.2425 -23.7375 -20.5725
10610 1 15.825 -22.155 -18.99
10611 1 14.2425 -23.7375 -17.4075
10612 3 15.825 -22.155 -15.825
10613 1 14.2425 -23.7375 -14.2425
10614 1 15.825 -22.155 -12.66
10615 2 14.2425 -23.7375 -11.0775
10616 2 15.825 -22.155 -9.495
10617 2 14.2425 -23.7375 -7.9125
10618 3 15.825 -22.155 -6.33
10619 2 14.2425 -23.7375 -4.7475
10620 3 15.825 -22.155 -3.165
10621 2 14.2425 -23.7375 -1.5825
10622 1 15.825 -22.155 0.0
10623 2 14.2425 -23.7375 1.5825
10624 2 15.825 -22.155 3.165
10625 1 14.2425 -23.7375 4.7475
10626 1 15.825 -22.155 6.33
10627 4 14.2425 -23.7375 7.9125
10628 3 15.825 -22.155 9.495
10629 4 14.2425 -23.7375 11.0775
10630 1 15.825 -22.155 12.66
10631 4 14.2425 -23.7375 14.2425
10632 1 15.825 -22.155 15.825
10633 2 14.2425 -23.7375 17.4075
10634 3 15.825 -22.155 18.99
10635 4 14.2425 -23.7375 20.5725
10636 1 15.825 -22.155 22.155
10637 4 14.2425 -23.7375 23.7375
10638 4 15.825 -22.155 25.32
10639 4 14.2425 -23.7375 26.9025
10640 3 15.825 -22.155 28.485
10641 1 14.2425 -23.7375 30.0675
10642 2 14.2425 -20.5725 -30.0675
10643 4 15.825 -18.99 -28.485
10644 2 14.2425 -20.5725 -26.9025
10645 1 15.825 -18.99 -25.32
10646 1 14.2425 -20.5725 -23.7375
10647 2 15.825 -18.99 -22.155
10648 1 14.2425 -20.5725 -20.5725
10649 1 14.2425 -20.5725 -17.4075
10650 1 15.825 -18.99 -15.825
10651 1 14.2425 -20.5725 -14.2425
10652 4 15.825 -18.99 -12.66
10653 4 14.2425 -20.5725 -11.0775
10654 2 15.825 -18.99 -9.495
10655 1 15.825 -18.99 -6.33
10656 2 14.2425 -20.5725 -4.7475
10657 3 15.825 -18.99 -3.165
10658 3 14.2425 -20.5725 -1.5825
10659 1 15.825 -18.99 0.0
10660 1 14.2425 -20.5725 1.5825
10661 3 15.825 -18.99 3.165
10662 1 14.2425 -20.5725 4.7475
10663 3 15.825 -18.99 6.33
10664 1 14.2425 -20.5725 7.9125
10665 2 15.825 -18.99 9.495
10666 2 14.2425 -20.5725 11.0775
10667 4 15.825 -18.99 12.66
10668 3 14.2425 -20.5725 14.2425
10669 2 15.825 -18.99 15.825
10670 4 14.2425 -20.5725 17.4075
10671 4 15.825 -18.99 18.99
10672 2 14.2425 -20.5725 20.5725
10673 2 15.825 -18.99 22.155
10674 1 14.2425 -20.5725 23.7375
10675 3 15.825 -18.99 25.32
10676 1 14.2425 -20.5725 26.9025
10677 2 15.825 -18.99 28.485
10678 1 14.2425 -20.5725 30.0675
10679 3 15.825 -18.99 31.65
10680 3 14.2425 -17.4075 -30.0675
10681 2 15.825 -15.825 -28.485
10682 1 15.825 -15.825 -25.32
10683 4 14.2425 -17.4075 -23.7375
10684 4 15.825 -15.825 -22.155
10685 3 15.825 -15.825 -18.99
10686 3 14.2425 -17.4075 -17.4075
10687 3 15.825 -15.825 -15.825
10688 4 14.2425 -17.4075 -14.2425
10689 1 15.825 -15.825 -12.66
10690 1 14.2425 -17.4075 -11.0775
10691 2 15.825 -15.825 -9.495
10692 2 14.2425 -17.4075 -7.9125
10693 4 15.825 -15.825 -3.165
10694 3 14.2425 -17.4075 -1.5825
10695 1 15.825 -15.825 0.0
10696 3 14.2425 -17.4075 1.5825
10697 2 14.2425 -17.4075 4.7475
10698 2 15.825 -15.825 6.33
10699 4 14.2425 -17.4075 7.9125
10700 2 15.825 -15.825 9.495
10701 3 14.2425 -17.4075 11.0775
10702 2 15.825 -15.825 12.66
10703 2 14.2425 -17.4075 14.2425
10704 2 15.825 -15.825 15.825
10705 2 14.2425 -17.4075 17.4075
10706 4 15.825 -15.825 18.99
10707 2 14.2425 -17.4075 20.5725
10708 1 15.825 -15.825 22.155
10709 2 14.2425 -17.4075 23.7375
10710 1 15.825 -15.825 25.32
10711 3 14.2425 -17.4075 26.9025
10712 1 15.825 -15.825 28.485
10713 3 14.2425 -17.4075 30.0675
10714 4 15.825 -15.825 31.65
10715 2 14.2425 -14.2425 -30.0675
10716 4 15.825 -12.66 -28.485
10717 2 14.2425 -14.2425 -26.9025
10718 4 15.825 -12.66 -25.32
10719 4 14.2425 -14.2425 -23.7375
10720 3 15.825 -12.66 -22.155
10721 1 14.2425 -14.2425 -20.5725
10722 2 15.825 -12.66 -18.99
10723 1 14.2425 -14.2425 -17.4075
10724 4 15.825 -12.66 -15.825
10725 3 14.2425 -14.2425 -14.2425
10726 2 15.825 -12.66 -12.66
10727 1 14.2425 -14.2425 -11.0775
10728 3 15.825 -12.66 -9.495
10729 1 14.2425 -14.2425 -7.9125
10730 3 15.825 -12.66 -6.33
10731 3 14.2425 -14.2425 -4.7475
10732 4 15.825 -12.66 -3.165
10733 4 14.2425 -14.2425 -1.5825
10734 3 15.825 -12.66 0.0
10735 3 14.2425 -14.2425 1.5825
10736 2 15.825 -12.66 3.165
10737 3 14.2425 -14.2425 4.7475
10738 4 15.825 -12.66 6.33
10739 4 14.2425 -14.2425 7.9125
10740 2 15.825 -12.66 9.495
10741 2 14.2425 -14.2425 11.0775
10742 4 15.825 -12.66 12.66
10743 4 14.2425 -14.2425 14.2425
10744 3 15.825 -12.66 15.825
10745 4 15.825 -12.66 18.99
10746 2 14.2425 -14.2425 20.5725
10747 1 15.825 -12.66 22.155
10748 2 14.2425 -14.2425 23.7375
10749 1 15.825 -12.66 25.32
10750 1 14.2425 -14.2425 26.9025
10751 4 15.825 -12.66 28.485
10752 4 14.2425 -14.2425 30.0675
10753 1 15.825 -12.66 31.65
10754 1 14.2425 -11.0775 -30.0675
10755 4 15.825 -9.495 -28.485
10756 2 14.2425 -11.0775 -26.9025
10757 2 15.825 -9.495 -25.32
10758 3 14.2425 -11.0775 -23.7375
10759 3 15.825 -9.495 -22.155
10760 4 14.2425 -11.0775 -20.5725
10761 4 15.825 -9.495 -18.99
10762 2 14.2425 -11.0775 -17.4075
10763 3 15.825 -9.495 -15.825
10764 4 14.2425 -11.0775 -14.2425
10765 1 15.825 -9.495 -12.66
10766 4 14.2425 -11.0775 -11.0775
10767 2 15.825 -9.495 -9.495
10768 3 14.2425 -11.0775 -7.9125
10769 2 15.825 -9.495 -6.33
10770 1 14.2425 -11.0775 -4.7475
10771 4 15.825 -9.495 -3.165
10772 2 14.2425 -11.0775 -1.5825
10773 1 15.825 -9.495 0.0
10774 2 14.2425 -11.0775 1.5825
10775 3 15.825 -9.495 3.165
10776 1 14.2425 -11.0775 4.7475
10777 3 15.825 -9.495 6.33
10778 3 14.2425 -11.0775 7.9125
10779 2 15.825 -9.495 9.495
10780 2 15.825 -9.495 12.66
10781 3 14.2425 -11.0775 14.2425
10782 2 15.825 -9.495 15.825
10783 4 14.2425 -11.0775 17.4075
10784 3 15.825 -9.495 18.99
10785 4 14.2425 -11.0775 20.5725
10786 3 15.825 -9.495 22.155
10787 3 14.2425 -11.0775 23.7375
10788 4 15.825 -9.495 25.32
10789 4 14.2425 -11.0775 26.9025
10790 1 15.825 -9.495 28.485
10791 4 14.2425 -11.0775 30.0675
10792 3 15.825 -9.495 31.65
10793 1 14.2425 -7.9125 -30.0675
10794 1 15.825 -6.33 -28.485
10795 2 14.2425 -7.9125 -26.9025
10796 4 15.825 -6.33 -25.32
10797 2 14.2425 -7.9125 -23.7375
10798 4 15.825 -6.33 -22.155
10799 3 14.2425 -7.9125 -20.5725
10800 4 15.825 -6.33 -18.99
10801 2 14.2425 -7.9125 -17.4075
10802 3 15.825 -6.33 -15.825
10803 2 14.2425 -7.9125 -14.2425
10804 2 15.825 -6.33 -12.66
10805 4 15.825 -6.33 -9.495
10806 3 14.2425 -7.9125 -7.9125
10807 4 15.825 -6.33 -6.33
10808 3 15.825 -6.33 -3.165
10809 4 14.2425 -7.9125 -1.5825
10810 1 15.825 -6.33 0.0
10811 2 14.2425 -7.9125 1.5825
10812 4 15.825 -6.33 3.165
10813 4 14.2425 -7.9125 4.7475
10814 1 15.825 -6.33 6.33
10815 3 14.2425 -7.9125 7.9125
10816 3 15.825 -6.33 9.495
10817 1 14.2425 -7.9125 11.0775
10818 4 15.825 -6.33 12.66
10819 4 14.2425 -7.9125 14.2425
10820 1 15.825 -6.33 15.825
10821 4 14.2425 -7.9125 17.4075
10822 2 15.825 -6.33 18.99
10823 3 14.2425 -7.9125 20.5725
10824 1 15.825 -6.33 22.155
10825 3 14.2425 -7.9125 23.7375
10826 4 15.825 -6.33 25.32
10827 3 14.2425 -7.9125 26.9025
10828 3 15.825 -6.33 28.485
10829 2 14.2425 -7.9125 30.0675
10830 2 15.825 -6.33 31.65
10831 3 14.2425 -4.7475 -30.0675
10832 1 15.825 -3.165 -28.485
10833 2 14.2425 -4.7475 -26.9025
10834 3 15.825 -3.165 -25.32
10835 3 14.2425 -4.7475 -23.7375
10836 3 15.825 -3.165 -22.155
10837 1 14.2425 -4.7475 -20.5725
10838 2 15.825 -3.165 -18.99
10839 4 14.2425 -4.7475 -17.4075
10840 2 15.825 -3.165 -15.825
10841 2 15.825 -3.165 -12.66
10842 4 14.2425 -4.7475 -11.0775
10843 4 15.825 -3.165 -9.495
10844 2 14.2425 -4.7475 -7.9125
10845 3 15.825 -3.165 -6.33
10846 2 14.2425 -4.7475 -4.7475
10847 1 15.825 -3.165 -3.165
10848 2 14.2425 -4.7475 1.5825
10849 1 15.825 -3.165 3.165
10850 1 14.2425 -4.7475 4.7475
10851 3 15.825 -3.165 6.33
10852 4 14.2425 -4.7475 7.9125
10853 2 15.825 -3.165 9.495
10854 4 14.2425 -4.7475 11.0775
10855 1 15.825 -3.165 12.66
10856 4 14.2425 -4.7475 14.2425
10857 1 15.825 -3.165 15.825
10858 3 14.2425 -4.7475 17.4075
10859 1 15.825 -3.165 18.99
10860 2 15.825 -3.165 22.155
10861 3 14.2425 -4.7475 23.7375
10862 3 15.825 -3.165 25.32
10863 3 14.2425 -4.7475 26.9025
10864 1 15.825 -3.165 28.485
10865 1 14.2425 -4.7475 30.0675
10866 3 15.825 -3.165 31.65
10867 2 14.2425 -1.5825 -30.0675
10868 1 15.825 0.0 -28.485
10869 1 14.2425 -1.5825 -26.9025
10870 4 15.825 0.0 -25.32
10871 3 14.2425 -1.5825 -23.7375
10872 4 15.825 0.0 -22.155
10873 2 14.2425 -1.5825 -20.5725
10874 2 15.825 0.0 -18.99
10875 4 14.2425 -1.5825 -17.4075
10876 4 15.825 0.0 -15.825
10877 4 14.2425 -1.5825 -14.2425
10878 3 15.825 0.0 -12.66
10879 4 14.2425 -1.5825 -11.0775
10880 1 15.825 0.0 -9.495
10881 1 14.2425 -1.5825 -7.9125
10882 1 15.825 0.0 -6.33
10883 3 14.2425 -1.5825 -4.7475
10884 2 15.825 0.0 -3.165
10885 4 14.2425 -1.5825 -1.5825
10886 2 15.825 0.0 0.0
10887 2 14.2425 -1.5825 1.5825
10888 3 15.825 0.0 3.165
10889 4 14.2425 -1.5825 4.7475
10890 1 14.2425 -1.5825 7.9125
10891 1 15.825 0.0 9.495
10892 2 14.2425 -1.5825 11.0775
10893 1 15.825 0.0 12.66
10894 3 14.2425 -1.5825 14.2425
10895 3 15.825 0.0 15.825
10896 4 14.2425 -1.5825 17.4075
10897 2 15.825 0.0 18.99
10898 3 14.2425 -1.5825 20.5725
10899 2 15.825 0.0 22.155
10900 2 14.2425 -1.5825 23.7375
10901 3 15.825 0.0 25.32
10902 3 14.2425 -1.5825 26.9025
10903 2 15.825 0.0 28.485
10904 4 14.2425 -1.5825 30.0675
10905 4 15.825 0.0 31.65
10906 1 14.2425 1.5825 -30.0675
10907 4 15.825 3.165 -28.485
10908 4 14.2425 1.5825 -26.9025
10909 3 14.2425 1.5825 -23.7375
10910 3 15.825 3.165 -22.155
10911 2 14.2425 1.5825 -20.5725
10912 2 15.825 3.165 -18.99
10913 3 14.2425 1.5825 -17.4075
10914 1 15.825 3.165 -15.825
10915 4 14.2425 1.5825 -14.2425
10916 2 15.825 3.165 -12.66
10917 4 14.2425 1.5825 -11.0775
10918 2 15.825 3.165 -9.495
10919 3 14.2425 1.5825 -7.9125
10920 2 15.825 3.165 -6.33
10921 4 14.2425 1.5825 -4.7475
10922 3 15.825 3.165 -3.165
10923 3 14.2425 1.5825 -1.5825
10924 4 15.825 3.165 0.0
10925 3 14.2425 1.5825 1.5825
10926 1 15.825 3.165 3.165
10927 1 14.2425 1.5825 4.7475
10928 4 15.825 3.165 6.33
10929 1 14.2425 1.5825 7.9125
10930 3 15.825 3.165 9.495
10931 3 14.2425 1.5825 11.0775
10932 1 14.2425 1.5825 14.2425
10933 3 15.825 3.165 15.825
10934 2 14.2425 1.5825 17.4075
10935 3 15.825 3.165 18.99
10936 3 14.2425 1.5825 20.5725
10937 1 15.825 3.165 22.155
10938 1 14.2425 1.5825 23.7375
10939 1 15.825 3.165 25.32
10940 4 14.2425 1.5825 26.9025
10941 3 15.825 3.165 28.485
10942 1 14.2425 1.5825 30.0675
10943 1 15.825 3.165 31.65
10944 3 14.2425 4.7475 -30.0675
10945 4 15.825 6.33 -28.485
10946 2 14.2425 4.7475 -26.9025
10947 1 15.825 6.33 -25.32
10948 2 14.2425 4.7475 -23.7375
10949 4 15.825 6.33 -22.155
10950 4 14.2425 4.7475 -20.5725
10951 3 15.825 6.33 -18.99
10952 3 14.2425 4.7475 -17.4075
10953 3 15.825 6.33 -15.825
10954 4 14.2425 4.7475 -14.2425
10955 1 15.825 6.33 -12.66
10956 2 14.2425 4.7475 -11.0775
10957 4 15.825 6.33 -9.495
10958 2 15.825 6.33 -6.33
10959 1 14.2425 4.7475 -4.7475
10960 1 15.825 6.33 -3.165
10961 1 14.2425 4.7475 -1.5825
10962 3 14.2425 4.7475 1.5825
10963 4 15.825 6.33 3.165
10964 1 14.2425 4.7475 4.7475
10965 3 15.825 6.33 6.33
10966 1 14.2425 4.7475 7.9125
10967 4 15.825 6.33 9.495
10968 2 14.2425 4.7475 11.0775
10969 1 15.825 6.33 12.66
10970 3 14.2425 4.7475 14.2425
10971 4 15.825 6.33 15.825
10972 2 14.2425 4.7475 17.4075
10973 4 15.825 6.33 18.99
10974 4 14.2425 4.7475 20.5725
10975 4 15.825 6.33 22.155
10976 3 14.2425 4.7475 23.7375
10977 4 15.825 6.33 25.32
10978 3 15.825 6.33 28.485
10979 1 15.825 6.33 31.65
10980 2 14.2425 7.9125 -30.0675
10981 4 14.2425 7.9125 -26.9025
10982 4 15.825 9.495 -25.32
10983 2 14.2425 7.9125 -23.7375
10984 2 15.825 9.495 -22.155
10985 2 14.2425 7.9125 -20.5725
10986 4 15.825 9.495 -18.99
10987 1 14.2425 7.9125 -17.4075
10988 3 15.825 9.495 -15.825
10989 4 14.2425 7.9125 -14.2425
10990 4 15.825 9.495 -12.66
10991 4 14.2425 7.9125 -11.0775
10992 1 15.825 9.495 -9.495
10993 4 14.2425 7.9125 -7.9125
10994 2 15.825 9.495 -6.33
10995 3 14.2425 7.9125 -4.7475
10996 2 15.825 9.495 -3.165
10997 4 14.2425 7.9125 -1.5825
10998 3 15.825 9.495 0.0
10999 2 14.2425 7.9125 1.5825
11000 4 15.825 9.495 3.165
11001 2 15.825 9.495 6.33
11002 4 14.2425 7.9125 7.9125
11003 1 15.825 9.495 9.495
11004 2 15.825 9.495 12.66
11005 3 14.2425 7.9125 14.2425
11006 2 15.825 9.495 15.825
11007 1 14.2425 7.9125 17.4075
11008 3 15.825 9.495 18.99
11009 1 14.2425 7.9125 20.5725
11010 2 15.825 9.495 22.155
11011 2 14.2425 7.9125 23.7375
11012 3 15.825 9.495 25.32
11013 1 14.2425 7.9125 26.9025
11014 4 15.825 9.495 28.485
11015 2 14.2425 7.9125 30.0675
11016 1 15.825 9.495 31.65
11017 4 14.2425 11.0775 -30.0675
11018 4 15.825 12.66 -28.485
11019 2 14.2425 11.0775 -26.9025
11020 1 15.825 12.66 -25.32
11021 1 15.825 12.66 -22.155
11022 2 14.2425 11.0775 -20.5725
11023 4 15.825 12.66 -18.99
11024 1 14.2425 11.0775 -17.4075
11025 4 14.2425 11.0775 -14.2425
11026 2 15.825 12.66 -12.66
11027 4 14.2425 11.0775 -11.0775
11028 4 15.825 12.66 -9.495
11029 3 14.2425 11.0775 -7.9125
11030 3 15.825 12.66 -6.33
11031 3 14.2425 11.0775 -4.7475
11032 3 15.825 12.66 -3.165
11033 2 14.2425 11.0775 -1.5825
11034 1 15.825 12.66 0.0
11035 2 14.2425 11.0775 1.5825
11036 2 15.825 12.66 3.165
11037 4 14.2425 11.0775 4.7475
11038 3 15.825 12.66 6.33
11039 4 14.2425 11.0775 7.9125
11040 2 14.2425 11.0775 11.0775
11041 2 15.825 12.66 12.66
11042 2 14.2425 11.0775 14.2425
11043 3 15.825 12.66 15.825
11044 2 14.2425 11.0775 17.4075
11045 4 15.825 12.66 18.99
11046 4 14.2425 11.0775 20.5725
11047 3 15.825 12.66 22.155
11048 2 14.2425 11.0775 23.7375
11049 3 15.825 12.66 25.32
11050 4 14.2425 11.0775 26.9025
11051 4 15.825 12.66 28.485
11052 4 14.2425 11.0775 30.0675
11053 3 15.825 12.66 31.65
11054 1 14.2425 14.2425 -30.0675
11055 3 15.825 15.825 -28.485
11056 3 14.2425 14.2425 -26.9025
11057 3 15.825 15.825 -25.32
11058 3 14.2425 14.2425 -23.7375
11059 1 15.825 15.825 -22.155
11060 4 14.2425 14.2425 -20.5725
11061 1 15.825 15.825 -18.99
11062 2 14.2425 14.2425 -17.4075
11063 4 15.825 15.825 -15.825
11064 3 14.2425 14.2425 -14.2425
11065 4 15.825 15.825 -12.66
11066 4 14.2425 14.2425 -11.0775
11067 3 15.825 15.825 -9.495
11068 4 14.2425 14.2425 -7.9125
11069 2 14.2425 14.2425 -4.7475
11070 1 15.825 15.825 -3.165
11071 4 14.2425 14.2425 -1.5825
11072 1 15.825 15.825 0.0
11073 4 14.2425 14.2425 1.5825
11074 3 15.825 15.825 3.165
11075 3 14.2425 14.2425 4.7475
11076 4 15.825 15.825 6.33
11077 3 14.2425 14.2425 7.9125
11078 1 15.825 15.825 9.495
11079 3 14.2425 14.2425 11.0775
11080 1 15.825 15.825 12.66
11081 2 14.2425 14.2425 14.2425
11082 3 15.825 15.825 15.825
11083 3 14.2425 14.2425 17.4075
11084 3 15.825 15.825 18.99
11085 2 14.2425 14.2425 20.5725
11086 3 15.825 15.825 22.155
11087 1 14.2425 14.2425 23.7375
11088 1 15.825 15.825 25.32
11089 1 14.2425 14.2425 26.9025
11090 3 15.825 15.825 28.485
11091 2 15.825 15.825 31.65
11092 4 14.2425 17.4075 -30.0675
11093 4 15.825 18.99 -28.485
11094 1 14.2425 17.4075 -26.9025
11095 1 15.825 18.99 -25.32
11096 3 14.2425 17.4075 -23.7375
11097 4 15.825 18.99 -22.155
11098 4 14.2425 17.4075 -20.5725
11099 2 15.825 18.99 -18.99
11100 2 14.2425 17.4075 -17.4075
11101 4 15.825 18.99 -15.825
11102 2 14.2425 17.4075 -14.2425
11103 2 15.825 18.99 -12.66
11104 3 14.2425 17.4075 -11.0775
11105 3 14.2425 17.4075 -7.9125
11106 3 15.825 18.99 -6.33
11107 4 14.2425 17.4075 -4.7475
11108 2 15.825 18.99 -3.165
11109 4 14.2425 17.4075 -1.5825
11110 2 15.825 18.99 0.0
11111 2 14.2425 17.4075 1.5825
11112 2 15.825 18.99 6.33
11113 4 14.2425 17.4075 7.9125
11114 4 15.825 18.99 9.495
11115 2 14.2425 17.4075 11.0775
11116 1 15.825 18.99 12.66
11117 1 14.2425 17.4075 14.2425
11118 2 15.825 18.99 15.825
11119 1 14.2425 17.4075 17.4075
11120 2 15.825 18.99 18.99
11121 2 14.2425 17.4075 20.5725
11122 3 15.825 18.99 22.155
11123 4 14.2425 17.4075 23.7375
11124 4 15.825 18.99 25.32
11125 1 14.2425 17.4075 26.9025
11126 4 15.825 18.99 28.485
11127 1 14.2425 17.4075 30.0675
11128 4 15.825 18.99 31.65
11129 3 14.2425 20.5725 -30.0675
11130 4 15.825 22.155 -28.485
11131 4 14.2425 20.5725 -26.9025
11132 3 15.825 22.155 -25.32
11133 2 14.2425 20.5725 -23.7375
11134 1 15.825 22.155 -22.155
11135 3 14.2425 20.5725 -20.5725
11136 2 15.825 22.155 -18.99
11137 4 14.2425 20.5725 -17.4075
11138 3 15.825 22.155 -15.825
11139 1 14.2425 20.5725 -14.2425
11140 3 15.825 22.155 -12.66
11141 1 14.2425 20.5725 -11.0775
11142 1 15.825 22.155 -9.495
11143 1 14.2425 20.5725 -7.9125
11144 4 15.825 22.155 -6.33
11145 1 14.2425 20.5725 -4.7475
11146 4 15.825 22.155 -3.165
11147 1 14.2425 20.5725 -1.5825
11148 1 15.825 22.155 0.0
11149 4 14.2425 20.5725 1.5825
11150 3 15.825 22.155 3.165
11151 2 14.2425 20.5725 4.7475
11152 4 15.825 22.155 6.33
11153 3 14.2425 20.5725 7.9125
11154 2 15.825 22.155 9.495
11155 2 14.2425 20.5725 11.0775
11156 1 15.825 22.155 12.66
11157 3 14.2425 20.5725 14.2425
11158 2 15.825 22.155 15.825
11159 3 14.2425 20.5725 17.4075
11160 1 15.825 22.155 18.99
11161 2 15.825 22.155 22.155
11162 3 14.2425 20.5725 23.7375
11163 3 15.825 22.155 25.32
11164 2 14.2425 20.5725 26.9025
11165 3 15.825 22.155 28.485
11166 2 14.2425 20.5725 30.0675
11167 4 15.825 22.155 31.65
11168 4 14.2425 23.7375 -30.0675
11169 2 15.825 25.32 -28.485
11170 2 14.2425 23.7375 -26.9025
11171 3 15.825 25.32 -25.32
11172 2 14.2425 23.7375 -23.7375
11173 1 15.825 25.32 -22.155
11174 1 14.2425 23.7375 -20.5725
11175 4 15.825 25.32 -18.99
11176 1 14.2425 23.7375 -17.4075
11177 4 15.825 25.32 -15.825
11178 4 14.2425 23.7375 -14.2425
11179 3 15.825 25.32 -12.66
11180 4 14.2425 23.7375 -11.0775
11181 3 14.2425 23.7375 -7.9125
11182 4 15.825 25.32 -6.33
11183 3 14.2425 23.7375 -4.7475
11184 3 15.825 25.32 -3.165
11185 1 14.2425 23.7375 -1.5825
11186 2 15.825 25.32 0.0
11187 2 14.2425 23.7375 1.5825
11188 1 15.825 25.32 3.165
11189 4 15.825 25.32 6.33
11190 2 14.2425 23.7375 7.9125
11191 3 15.825 25.32 9.495
11192 2 14.2425 23.7375 11.0775
11193 4 15.825 25.32 12.66
11194 1 14.2425 23.7375 14.2425
11195 3 15.825 25.32 15.825
11196 2 15.825 25.32 18.99
11197 2 14.2425 23.7375 20.5725
11198 3 15.825 25.32 22.155
11199 1 14.2425 23.7375 23.7375
11200 3 15.825 25.32 25.32
11201 4 14.2425 23.7375 26.9025
11202 2 15.825 25.32 28.485
11203 2 14.2425 23.7375 30.0675
11204 4 15.825 25.32 31.65
11205 3 14.2425 26.9025 -30.0675
11206 2 15.825 28.485 -28.485
11207 1 14.2425 26.9025 -26.9025
11208 1 15.825 28.485 -25.32
11209 2 14.2425 26.9025 -23.7375
11210 4 15.825 28.485 -22.155
11211 1 14.2425 26.9025 -20.5725
11212 1 15.825 28.485 -18.99
11213 1 14.2425 26.9025 -17.4075
11214 4 15.825 28.485 -15.825
11215 3 14.2425 26.9025 -14.2425
11216 3 15.825 28.485 -12.66
11217 2 14.2425 26.9025 -11.0775
11218 3 15.825 28.485 -9.495
11219 4 14.2425 26.9025 -7.9125
11220 1 15.825 28.485 -6.33
11221 3 14.2425 26.9025 -4.7475
11222 2 15.825 28.485 -3.165
11223 3 14.2425 26.9025 -1.5825
11224 4 15.825 28.485 0.0
11225 1 14.2425 26.9025 1.5825
11226 3 15.825 28.485 3.165
11227 4 14.2425 26.9025 4.7475
11228 1 15.825 28.485 6.33
11229 4 14.2425 26.9025 7.9125
11230 1 15.825 28.485 9.495
11231 2 14.2425 26.9025 11.0775
11232 2 15.825 28.485 12.66
11233 2 14.2425 26.9025 14.2425
11234 4 15.825 28.485 15.825
11235 3 14.2425 26.9025 17.4075
11236 3 15.825 28.485 18.99
11237 3 14.2425 26.9025 20.5725
11238 2 15.825 28.485 22.155
11239 3 14.2425 26.9025 23.7375
11240 3 15.825 28.485 25.32
11241 4 14.2425 26.9025 26.9025
11242 2 15.825 28.485 28.485
11243 2 14.2425 26.9025 30.0675
11244 3 15.825 28.485 31.65
11245 3 14.2425 30.0675 -30.0675
11246 3 15.825 31.65 -28.485
11247 4 14.2425 30.0675 -26.9025
11248 1 15.825 31.65 -25.32
11249 3 14.2425 30.0675 -23.7375
11250 1 15.825 31.65 -22.155
11251 1 14.2425 30.0675 -20.5725
11252 1 15.825 31.65 -18.99
11253 4 14.2425 30.0675 -17.4075
11254 3 15.825 31.65 -15.825
11255 3 14.2425 30.0675 -14.2425
11256 1 15.825 31.65 -12.66
11257 1 14.2425 30.0675 -11.0775
11258 3 15.825 31.65 -9.495
11259 1 14.2425 30.0675 -7.9125
11260 4 15.825 31.65 -6.33
11261 4 15.825 31.65 -3.165
11262 1 14.2425 30.0675 -1.5825
11263 3 15.825 31.65 0.0
11264 1 14.2425 30.0675 1.5825
11265 4 15.825 31.65 3.165
11266 2 14.2425 30.0675 4.7475
11267 2 15.825 31.65 6.33
11268 3 14.2425 30.0675 7.9125
11269 4 15.825 31.65 9.495
11270 2 14.2425 30.0675 11.0775
11271 1 14.2425 30.0675 14.2425
11272 2 15.825 31.65 15.825
11273 1 14.2425 30.0675 17.4075
11274 2 15.825 31.65 18.99
11275 1 14.2425 30.0675 20.5725
11276 3 14.2425 30.0675 23.7375
11277 4 15.825 31.65 25.32
11278 3 14.2425 30.0675 26.9025
11279 3 15.825 31.65 28.485
11280 3 14.2425 30.0675 30.0675
11281 1 15.825 31.65 31.65
11282 3 17.4075 -30.0675 -30.0675
11283 4 18.99 -28.485 -28.485
11284 3 17.4075 -30.0675 -26.9025
11285 4 18.99 -28.485 -25.32
11286 3 17.4075 -30.0675 -23.7375
11287 1 18.99 -28.485 -22.155
11288 1 17.4075 -30.0675 -20.5725
11289 2 18.99 -28.485 -18.99
11290 2 17.4075 -30.0675 -17.4075
11291 4 18.99 -28.485 -15.825
11292 3 17.4075 -30.0675 -14.2425
11293 1 18.99 -28.485 -12.66
11294 1 18.99 -28.485 -9.495
11295 2 17.4075 -30.0675 -7.9125
11296 4 18.99 -28.485 -6.33
11297 3 17.4075 -30.0675 -4.7475
11298 4 18.99 -28.485 -3.165
11299 1 17.4075 -30.0675 -1.5825
11300 2 18.99 -28.485 0.0
11301 1 17.4075 -30.0675 4.7475
11302 2 18.99 -28.485 6.33
11303 3 17.4075 -30.0675 7.9125
11304 1 18.99 -28.485 9.495
11305 3 17.4075 -30.0675 11.0775
11306 2 18.99 -28.485 12.66
11307 1 17.4075 -30.0675 14.2425
11308 3 18.99 -28.485 15.825
11309 1 17.4075 -30.0675 17.4075
11310 4 18.99 -28.485 18.99
11311 2 17.4075 -30.0675 20.5725
11312 3 18.99 -28.485 22.155
11313 1 17.4075 -30.0675 23.7375
11314 4 18.99 -28.485 25.32
11315 1 17.4075 -30.0675 26.9025
11316 4 18.99 -28.485 28.485
11317 2 18.99 -28.485 31.65
11318 4 17.4075 -26.9025 -30.0675
11319 2 18.99 -25.32 -28.485
11320 3 17.4075 -26.9025 -26.9025
11321 2 18.99 -25.32 -25.32
11322 1 17.4075 -26.9025 -23.7375
11323 4 18.99 -25.32 -22.155
11324 4 17.4075 -26.9025 -20.5725
11325 1 18.99 -25.32 -18.99
11326 2 17.4075 -26.9025 -17.4075
11327 3 18.99 -25.32 -15.825
11328 1 17.4075 -26.9025 -14.2425
11329 4 18.99 -25.32 -12.66
11330 4 17.4075 -26.9025 -11.0775
11331 3 18.99 -25.32 -9.495
11332 1 17.4075 -26.9025 -7.9125
11333 1 18.99 -25.32 -6.33
11334 4 17.4075 -26.9025 -4.7475
11335 4 18.99 -25.32 -3.165
11336 2 17.4075 -26.9025 -1.5825
11337 2 18.99 -25.32 0.0
11338 3 17.4075 -26.9025 1.5825
11339 1 18.99 -25.32 3.165
11340 3 17.4075 -26.9025 4.7475
11341 3 18.99 -25.32 6.33
11342 2 17.4075 -26.9025 7.9125
11343 1 18.99 -25.32 9.495
11344 2 17.4075 -26.9025 11.0775
11345 1 18.99 -25.32 12.66
11346 1 17.4075 -26.9025 14.2425
11347 3 18.99 -25.32 15.825
11348 2 18.99 -25.32 18.99
11349 1 17.4075 -26.9025 20.5725
11350 4 18.99 -25.32 22.155
11351 3 17.4075 -26.9025 23.7375
11352 1 18.99 -25.32 25.32
11353 3 17.4075 -26.9025 26.9025
11354 3 18.99 -25.32 28.485
11355 4 17.4075 -26.9025 30.0675
11356 2 18.99 -25.32 31.65
11357 1 17.4075 -23.7375 -30.0675
11358 2 18.99 -22.155 -28.485
11359 4 17.4075 -23.7375 -26.9025
11360 1 18.99 -22.155 -25.32
11361 1 17.4075 -23.7375 -23.7375
11362 4 18.99 -22.155 -22.155
11363 3 17.4075 -23.7375 -20.5725
11364 3 18.99 -22.155 -18.99
11365 1 17.4075 -23.7375 -17.4075
11366 2 18.99 -22.155 -15.825
11367 4 17.4075 -23.7375 -14.2425
11368 2 18.99 -22.155 -12.66
11369 2 17.4075 -23.7375 -11.0775
11370 1 18.99 -22.155 -9.495
11371 4 17.4075 -23.7375 -7.9125
11372 4 18.99 -22.155 -6.33
11373 2 17.4075 -23.7375 -4.7475
11374 3 18.99 -22.155 -3.165
11375 2 17.4075 -23.7375 -1.5825
11376 4 18.99 -22.155 0.0
11377 2 17.4075 -23.7375 1.5825
11378 1 18.99 -22.155 3.165
11379 4 17.4075 -23.7375 4.7475
11380 4 18.99 -22.155 6.33
11381 1 17.4075 -23.7375 7.9125
11382 4 18.99 -22.155 9.495
11383 2 17.4075 -23.7375 11.0775
11384 2 18.99 -22.155 12.66
11385 2 17.4075 -23.7375 14.2425
11386 2 18.99 -22.155 15.825
11387 4 17.4075 -23.7375 17.4075
11388 3 18.99 -22.155 18.99
11389 1 17.4075 -23.7375 20.5725
11390 4 18.99 -22.155 22.155
11391 2 17.4075 -23.7375 23.7375
11392 2 18.99 -22.155 25.32
11393 1 17.4075 -23.7375 26.9025
11394 1 18.99 -22.155 28.485
11395 2 17.4075 -23.7375 30.0675
11396 2 18.99 -22.155 31.65
11397 3 17.4075 -20.5725 -30.0675
11398 2 18.99 -18.99 -28.485
11399 3 17.4075 -20.5725 -26.9025
11400 1 18.99 -18.99 -25.32
11401 3 17.4075 -20.5725 -23.7375
11402 4 18.99 -18.99 -22.155
11403 2 17.4075 -20.5725 -20.5725
11404 3 18.99 -18.99 -18.99
11405 4 17.4075 -20.5725 -17.4075
11406 2 18.99 -18.99 -15.825
11407 3 17.4075 -20.5725 -14.2425
11408 1 18.99 -18.99 -12.66
11409 4 17.4075 -20.5725 -11.0775
11410 4 18.99 -18.99 -9.495
11411 1 17.4075 -20.5725 -7.9125
11412 3 18.99 -18.99 -6.33
11413 4 17.4075 -20.5725 -4.7475
11414 3 18.99 -18.99 -3.165
11415 4 17.4075 -20.5725 -1.5825
11416 3 18.99 -18.99 0.0
11417 3 17.4075 -20.5725 1.5825
11418 2 18.99 -18.99 3.165
11419 4 17.4075 -20.5725 4.7475
11420 4 18.99 -18.99 6.33
11421 3 17.4075 -20.5725 7.9125
11422 1 18.99 -18.99 9.495
11423 3 17.4075 -20.5725 11.0775
11424 3 17.4075 -20.5725 14.2425
11425 4 18.99 -18.99 15.825
11426 3 17.4075 -20.5725 17.4075
11427 3 18.99 -18.99 18.99
11428 3 17.4075 -20.5725 20.5725
11429 4 18.99 -18.99 22.155
11430 2 17.4075 -20.5725 23.7375
11431 3 18.99 -18.99 25.32
11432 3 17.4075 -20.5725 26.9025
11433 1 18.99 -18.99 28.485
11434 2 17.4075 -20.5725 30.0675
11435 2 18.99 -18.99 31.65
11436 2 17.4075 -17.4075 -30.0675
11437 1 18.99 -15.825 -28.485
11438 3 17.4075 -17.4075 -26.9025
11439 2 18.99 -15.825 -25.32
11440 2 17.4075 -17.4075 -23.7375
11441 1 18.99 -15.825 -22.155
11442 1 17.4075 -17.4075 -20.5725
11443 2 18.99 -15.825 -18.99
11444 2 17.4075 -17.4075 -17.4075
11445 3 18.99 -15.825 -15.825
11446 4 17.4075 -17.4075 -14.2425
11447 1 18.99 -15.825 -12.66
11448 4 17.4075 -17.4075 -11.0775
11449 3 17.4075 -17.4075 -7.9125
11450 4 18.99 -15.825 -6.33
11451 3 17.4075 -17.4075 -4.7475
11452 3 18.99 -15.825 -3.165
11453 1 17.4075 -17.4075 -1.5825
11454 1 18.99 -15.825 0.0
11455 4 17.4075 -17.4075 1.5825
11456 2 18.99 -15.825 3.165
11457 3 17.4075 -17.4075 4.7475
11458 4 18.99 -15.825 6.33
11459 2 17.4075 -17.4075 7.9125
11460 1 18.99 -15.825 9.495
11461 3 18.99 -15.825 12.66
11462 4 17.4075 -17.4075 14.2425
11463 4 18.99 -15.825 15.825
11464 1 17.4075 -17.4075 17.4075
11465 4 18.99 -15.825 18.99
11466 4 17.4075 -17.4075 20.5725
11467 3 18.99 -15.825 22.155
11468 4 17.4075 -17.4075 23.7375
11469 1 18.99 -15.825 25.32
11470 1 17.4075 -17.4075 26.9025
11471 3 18.99 -15.825 28.485
11472 4 17.4075 -17.4075 30.0675
11473 4 18.99 -15.825 31.65
11474 4 17.4075 -14.2425 -30.0675
11475 3 18.99 -12.66 -28.485
11476 2 18.99 -12.66 -25.32
11477 1 17.4075 -14.2425 -23.7375
11478 2 18.99 -12.66 -22.155
11479 2 17.4075 -14.2425 -20.5725
11480 3 18.99 -12.66 -18.99
11481 2 17.4075 -14.2425 -17.4075
11482 3 18.99 -12.66 -15.825
11483 3 17.4075 -14.2425 -14.2425
11484 1 18.99 -12.66 -12.66
11485 3 17.4075 -14.2425 -11.0775
11486 1 18.99 -12.66 -9.495
11487 4 17.4075 -14.2425 -7.9125
11488 4 18.99 -12.66 -6.33
11489 2 17.4075 -14.2425 -4.7475
11490 4 18.99 -12.66 -3.165
11491 3 17.4075 -14.2425 -1.5825
11492 3 18.99 -12.66 0.0
11493 2 17.4075 -14.2425 1.5825
11494 1 18.99 -12.66 3.165
11495 3 17.4075 -14.2425 4.7475
11496 3 18.99 -12.66 6.33
11497 1 17.4075 -14.2425 7.9125
11498 3 18.99 -12.66 9.495
11499 3 17.4075 -14.2425 11.0775
11500 1 18.99 -12.66 12.66
11501 4 17.4075 -14.2425 14.2425
11502 4 18.99 -12.66 15.825
11503 1 17.4075 -14.2425 17.4075
11504 4 18.99 -12.66 18.99
11505 1 17.4075 -14.2425 20.5725
11506 4 18.99 -12.66 22.155
11507 3 17.4075 -14.2425 23.7375
11508 4 18.99 -12.66 25.32
11509 1 17.4075 -14.2425 26.9025
11510 2 18.99 -12.66 28.485
11511 2 17.4075 -14.2425 30.0675
11512 1 18.99 -12.66 31.65
11513 3 17.4075 -11.0775 -30.0675
11514 4 18.99 -9.495 -28.485
11515 3 17.4075 -11.0775 -26.9025
11516 2 17.4075 -11.0775 -23.7375
11517 1 18.99 -9.495 -22.155
11518 2 17.4075 -11.0775 -20.5725
11519 4 18.99 -9.495 -18.99
11520 2 17.4075 -11.0775 -17.4075
11521 4 18.99 -9.495 -15.825
11522 1 17.4075 -11.0775 -14.2425
11523 1 18.99 -9.495 -12.66
11524 4 17.4075 -11.0775 -11.0775
11525 4 17.4075 -11.0775 -7.9125
11526 4 18.99 -9.495 -6.33
11527 2 17.4075 -11.0775 -4.7475
11528 3 18.99 -9.495 -3.165
11529 1 17.4075 -11.0775 1.5825
11530 4 18.99 -9.495 3.165
11531 1 17.4075 -11.0775 4.7475
11532 3 18.99 -9.495 6.33
11533 3 17.4075 -11.0775 7.9125
11534 3 18.99 -9.495 9.495
11535 2 17.4075 -11.0775 11.0775
11536 1 18.99 -9.495 12.66
11537 3 17.4075 -11.0775 14.2425
11538 1 18.99 -9.495 15.825
11539 3 17.4075 -11.0775 17.4075
11540 2 18.99 -9.495 18.99
11541 1 17.4075 -11.0775 20.5725
11542 2 18.99 -9.495 22.155
11543 3 17.4075 -11.0775 23.7375
11544 4 18.99 -9.495 25.32
11545 2 17.4075 -11.0775 26.9025
11546 4 18.99 -9.495 28.485
11547 4 17.4075 -11.0775 30.0675
11548 4 18.99 -9.495 31.65
11549 2 18.99 -6.33 -28.485
11550 1 17.4075 -7.9125 -26.9025
11551 4 18.99 -6.33 -25.32
11552 1 17.4075 -7.9125 -23.7375
11553 3 18.99 -6.33 -22.155
11554 4 17.4075 -7.9125 -20.5725
11555 1 18.99 -6.33 -18.99
11556 4 17.4075 -7.9125 -17.4075
11557 3 17.4075 -7.9125 -14.2425
11558 1 18.99 -6.33 -12.66
11559 3 17.4075 -7.9125 -11.0775
11560 4 18.99 -6.33 -9.495
11561 2 17.4075 -7.9125 -7.9125
11562 1 18.99 -6.33 -6.33
11563 4 17.4075 -7.9125 -4.7475
11564 4 18.99 -6.33 -3.165
11565 2 17.4075 -7.9125 -1.5825
11566 3 18.99 -6.33 0.0
11567 4 17.4075 -7.9125 1.5825
11568 1 18.99 -6.33 3.165
11569 2 17.4075 -7.9125 4.7475
11570 2 18.99 -6.33 6.33
11571 2 17.4075 -7.9125 7.9125
11572 4 18.99 -6.33 9.495
11573 2 17.4075 -7.9125 11.0775
11574 2 17.4075 -7.9125 14.2425
11575 1 18.99 -6.33 15.825
11576 2 17.4075 -7.9125 17.4075
11577 4 17.4075 -7.9125 20.5725
11578 3 18.99 -6.33 22.155
11579 1 17.4075 -7.9125 23.7375
11580 2 18.99 -6.33 25.32
11581 4 17.4075 -7.9125 26.9025
11582 2 18.99 -6.33 28.485
11583 4 17.4075 -7.9125 30.0675
11584 1 18.99 -6.33 31.65
11585 4 17.4075 -4.7475 -30.0675
11586 4 18.99 -3.165 -28.485
11587 4 17.4075 -4.7475 -26.9025
11588 1 18.99 -3.165 -25.32
11589 2 17.4075 -4.7475 -23.7375
11590 1 18.99 -3.165 -22.155
11591 4 17.4075 -4.7475 -20.5725
11592 2 18.99 -3.165 -18.99
11593 2 17.4075 -4.7475 -17.4075
11594 4 18.99 -3.165 -15.825
11595 3 17.4075 -4.7475 -14.2425
11596 4 18.99 -3.165 -9.495
11597 4 17.4075 -4.7475 -7.9125
11598 3 17.4075 -4.7475 -4.7475
11599 2 18.99 -3.165 -3.165
11600 4 17.4075 -4.7475 -1.5825
11601 4 18.99 -3.165 0.0
11602 2 17.4075 -4.7475 1.5825
11603 3 18.99 -3.165 3.165
11604 4 17.4075 -4.7475 4.7475
11605 3 18.99 -3.165 6.33
11606 2 17.4075 -4.7475 7.9125
11607 3 18.99 -3.165 9.495
11608 4 17.4075 -4.7475 11.0775
11609 2 18.99 -3.165 12.66
11610 4 17.4075 -4.7475 14.2425
11611 1 18.99 -3.165 15.825
11612 1 17.4075 -4.7475 17.4075
11613 1 18.99 -3.165 18.99
11614 1 17.4075 -4.7475 20.5725
11615 2 18.99 -3.165 22.155
11616 4 17.4075 -4.7475 23.7375
11617 3 18.99 -3.165 25.32
11618 3 17.4075 -4.7475 26.9025
11619 4 18.99 -3.165 28.485
11620 1 17.4075 -4.7475 30.0675
11621 3 18.99 -3.165 31.65
11622 3 17.4075 -1.5825 -30.0675
11623 1 18.99 0.0 -28.485
11624 4 18.99 0.0 -25.32
11625 1 17.4075 -1.5825 -23.7375
11626 1 18.99 0.0 -22.155
11627 1 17.4075 -1.5825 -20.5725
11628 3 18.99 0.0 -18.99
11629 2 17.4075 -1.5825 -17.4075
11630 3 18.99 0.0 -15.825
11631 3 17.4075 -1.5825 -14.2425
11632 1 18.99 0.0 -12.66
11633 2 18.99 0.0 -9.495
11634 1 17.4075 -1.5825 -7.9125
11635 1 18.99 0.0 -6.33
11636 3 17.4075 -1.5825 -4.7475
11637 1 18.99 0.0 -3.165
11638 1 17.4075 -1.5825 -1.5825
11639 2 18.99 0.0 0.0
11640 3 17.4075 -1.5825 1.5825
11641 1 18.99 0.0 3.165
11642 4 17.4075 -1.5825 4.7475
11643 3 18.99 0.0 6.33
11644 4 17.4075 -1.5825 7.9125
11645 2 18.99 0.0 9.495
11646 2 17.4075 -1.5825 11.0775
11647 3 18.99 0.0 12.66
11648 4 17.4075 -1.5825 14.2425
11649 2 18.99 0.0 15.825
11650 2 17.4075 -1.5825 17.4075
11651 4 18.99 0.0 18.99
11652 1 17.4075 -1.5825 20.5725
11653 2 18.99 0.0 22.155
11654 4 17.4075 -1.5825 23.7375
11655 2 18.99 0.0 25.32
11656 2 17.4075 -1.5825 26.9025
11657 1 18.99 0.0 28.485
11658 4 17.4075 -1.5825 30.0675
11659 4 18.99 0.0 31.65
11660 2 17.4075 1.5825 -30.0675
11661 1 18.99 3.165 -28.485
11662 4 17.4075 1.5825 -26.9025
11663 3 18.99 3.165 -25.32
11664 4 17.4075 1.5825 -23.7375
11665 3 17.4075 1.5825 -20.5725
11666 3 18.99 3.165 -18.99
11667 3 17.4075 1.5825 -17.4075
11668 1 18.99 3.165 -15.825
11669 4 17.4075 1.5825 -14.2425
11670 3 18.99 3.165 -12.66
11671 1 17.4075 1.5825 -11.0775
11672 1 18.99 3.165 -9.495
11673 2 17.4075 1.5825 -7.9125
11674 4 17.4075 1.5825 -4.7475
11675 2 18.99 3.165 -3.165
11676 3 17.4075 1.5825 -1.5825
11677 2 18.99 3.165 0.0
11678 1 17.4075 1.5825 1.5825
11679 3 18.99 3.165 3.165
11680 3 17.4075 1.5825 4.7475
11681 2 18.99 3.165 6.33
11682 3 17.4075 1.5825 7.9125
11683 3 18.99 3.165 9.495
11684 2 17.4075 1.5825 11.0775
11685 2 18.99 3.165 12.66
11686 4 17.4075 1.5825 14.2425
11687 4 18.99 3.165 15.825
11688 4 18.99 3.165 18.99
11689 1 17.4075 1.5825 20.5725
11690 3 18.99 3.165 22.155
11691 4 17.4075 1.5825 23.7375
11692 4 18.99 3.165 25.32
11693 1 17.4075 1.5825 26.9025
11694 1 18.99 3.165 28.485
11695 3 17.4075 1.5825 30.0675
11696 4 17.4075 4.7475 -30.0675
11697 1 18.99 6.33 -28.485
11698 2 17.4075 4.7475 -23.7375
11699 3 18.99 6.33 -22.155
11700 1 17.4075 4.7475 -20.5725
11701 3 18.99 6.33 -18.99
11702 3 17.4075 4.7475 -17.4075
11703 1 18.99 6.33 -15.825
11704 1 17.4075 4.7475 -14.2425
11705 3 18.99 6.33 -12.66
11706 1 17.4075 4.7475 -11.0775
11707 4 18.99 6.33 -9.495
11708 2 17.4075 4.7475 -7.9125
11709 1 18.99 6.33 -6.33
11710 4 17.4075 4.7475 -4.7475
11711 1 18.99 6.33 -3.165
11712 3 17.4075 4.7475 -1.5825
11713 4 18.99 6.33 0.0
11714 2 17.4075 4.7475 1.5825
11715 4 18.99 6.33 3.165
11716 2 17.4075 4.7475 4.7475
11717 3 18.99 6.33 6.33
11718 3 17.4075 4.7475 7.9125
11719 4 18.99 6.33 9.495
11720 3 17.4075 4.7475 11.0775
11721 1 18.99 6.33 12.66
11722 4 17.4075 4.7475 14.2425
11723 1 18.99 6.33 15.825
11724 3 17.4075 4.7475 17.4075
11725 1 18.99 6.33 18.99
11726 1 17.4075 4.7475 20.5725
11727 1 18.99 6.33 22.155
11728 4 17.4075 4.7475 23.7375
11729 4 18.99 6.33 25.32
11730 2 17.4075 4.7475 26.9025
11731 2 18.99 6.33 28.485
11732 4 17.4075 4.7475 30.0675
11733 4 18.99 6.33 31.65
11734 1 17.4075 7.9125 -30.0675
11735 2 18.99 9.495 -28.485
11736 1 17.4075 7.9125 -26.9025
11737 4 18.99 9.495 -25.32
11738 3 17.4075 7.9125 -23.7375
11739 1 18.99 9.495 -22.155
11740 1 17.4075 7.9125 -20.5725
11741 4 18.99 9.495 -18.99
11742 1 17.4075 7.9125 -17.4075
11743 2 18.99 9.495 -15.825
11744 2 17.4075 7.9125 -14.2425
11745 3 18.99 9.495 -12.66
11746 2 17.4075 7.9125 -11.0775
11747 4 18.99 9.495 -9.495
11748 3 17.4075 7.9125 -7.9125
11749 2 18.99 9.495 -6.33
11750 3 17.4075 7.9125 -4.7475
11751 4 18.99 9.495 -3.165
11752 4 18.99 9.495 0.0
11753 3 17.4075 7.9125 1.5825
11754 1 18.99 9.495 3.165
11755 1 17.4075 7.9125 4.7475
11756 4 18.99 9.495 6.33
11757 2 18.99 9.495 9.495
11758 3 17.4075 7.9125 11.0775
11759 3 18.99 9.495 12.66
11760 4 17.4075 7.9125 14.2425
11761 1 18.99 9.495 15.825
11762 4 17.4075 7.9125 17.4075
11763 4 18.99 9.495 18.99
11764 1 17.4075 7.9125 20.5725
11765 4 18.99 9.495 22.155
11766 1 17.4075 7.9125 23.7375
11767 2 18.99 9.495 25.32
11768 3 17.4075 7.9125 26.9025
11769 3 18.99 9.495 28.485
11770 4 17.4075 7.9125 30.0675
11771 4 18.99 9.495 31.65
11772 2 17.4075 11.0775 -30.0675
11773 4 18.99 12.66 -28.485
11774 2 17.4075 11.0775 -26.9025
11775 3 18.99 12.66 -25.32
11776 3 17.4075 11.0775 -23.7375
11777 4 18.99 12.66 -22.155
11778 2 17.4075 11.0775 -20.5725
11779 1 18.99 12.66 -18.99
11780 3 17.4075 11.0775 -17.4075
11781 1 18.99 12.66 -15.825
11782 3 17.4075 11.0775 -14.2425
11783 1 18.99 12.66 -12.66
11784 2 17.4075 11.0775 -11.0775
11785 4 18.99 12.66 -9.495
11786 1 17.4075 11.0775 -7.9125
11787 3 18.99 12.66 -6.33
11788 1 17.4075 11.0775 -4.7475
11789 1 17.4075 11.0775 -1.5825
11790 3 18.99 12.66 0.0
11791 1 17.4075 11.0775 1.5825
11792 4 18.99 12.66 3.165
11793 2 17.4075 11.0775 4.7475
11794 1 18.99 12.66 6.33
11795 2 17.4075 11.0775 7.9125
11796 3 18.99 12.66 9.495
11797 3 17.4075 11.0775 11.0775
11798 4 18.99 12.66 12.66
11799 3 17.4075 11.0775 14.2425
11800 1 18.99 12.66 15.825
11801 4 17.4075 11.0775 17.4075
11802 3 18.99 12.66 18.99
11803 3 17.4075 11.0775 20.5725
11804 3 18.99 12.66 22.155
11805 2 17.4075 11.0775 23.7375
11806 1 18.99 12.66 25.32
11807 1 18.99 12.66 28.485
11808 1 17.4075 11.0775 30.0675
11809 2 18.99 12.66 31.65
11810 4 17.4075 14.2425 -30.0675
11811 1 18.99 15.825 -28.485
11812 4 17.4075 14.2425 -26.9025
11813 1 18.99 15.825 -25.32
11814 1 17.4075 14.2425 -23.7375
11815 4 18.99 15.825 -22.155
11816 1 17.4075 14.2425 -20.5725
11817 4 18.99 15.825 -18.99
11818 4 17.4075 14.2425 -17.4075
11819 1 17.4075 14.2425 -14.2425
11820 2 18.99 15.825 -12.66
11821 2 17.4075 14.2425 -11.0775
11822 2 18.99 15.825 -9.495
11823 3 17.4075 14.2425 -7.9125
11824 4 18.99 15.825 -6.33
11825 1 17.4075 14.2425 -4.7475
11826 3 18.99 15.825 -3.165
11827 4 17.4075 14.2425 -1.5825
11828 4 18.99 15.825 0.0
11829 3 17.4075 14.2425 1.5825
11830 2 18.99 15.825 3.165
11831 1 17.4075 14.2425 4.7475
11832 1 18.99 15.825 6.33
11833 2 17.4075 14.2425 7.9125
11834 2 18.99 15.825 9.495
11835 3 17.4075 14.2425 11.0775
11836 4 18.99 15.825 12.66
11837 2 17.4075 14.2425 14.2425
11838 2 18.99 15.825 15.825
11839 2 17.4075 14.2425 17.4075
11840 3 18.99 15.825 18.99
11841 4 17.4075 14.2425 20.5725
11842 1 18.99 15.825 22.155
11843 4 17.4075 14.2425 23.7375
11844 2 17.4075 14.2425 26.9025
11845 4 18.99 15.825 28.485
11846 4 17.4075 14.2425 30.0675
11847 3 18.99 15.825 31.65
11848 1 17.4075 17.4075 -30.0675
11849 1 18.99 18.99 -28.485
11850 1 17.4075 17.4075 -26.9025
11851 4 18.99 18.99 -25.32
11852 2 17.4075 17.4075 -23.7375
11853 3 18.99 18.99 -22.155
11854 4 17.4075 17.4075 -20.5725
11855 3 18.99 18.99 -18.99
11856 3 17.4075 17.4075 -17.4075
11857 1 18.99 18.99 -15.825
11858 3 17.4075 17.4075 -14.2425
11859 1 18.99 18.99 -12.66
11860 1 17.4075 17.4075 -11.0775
11861 2 18.99 18.99 -9.495
11862 1 17.4075 17.4075 -7.9125
11863 1 18.99 18.99 -6.33
11864 2 17.4075 17.4075 -4.7475
11865 4 18.99 18.99 -3.165
11866 4 17.4075 17.4075 -1.5825
11867 1 18.99 18.99 0.0
11868 2 17.4075 17.4075 1.5825
11869 3 18.99 18.99 3.165
11870 1 17.4075 17.4075 4.7475
11871 4 18.99 18.99 6.33
11872 2 17.4075 17.4075 7.9125
11873 2 18.99 18.99 9.495
11874 2 17.4075 17.4075 11.0775
11875 1 18.99 18.99 12.66
11876 4 17.4075 17.4075 14.2425
11877 4 18.99 18.99 15.825
11878 3 17.4075 17.4075 17.4075
11879 1 18.99 18.99 18.99
11880 2 17.4075 17.4075 20.5725
11881 4 18.99 18.99 22.155
11882 1 17.4075 17.4075 23.7375
11883 4 18.99 18.99 25.32
11884 3 17.4075 17.4075 26.9025
11885 1 18.99 18.99 28.485
11886 3 17.4075 17.4075 30.0675
11887 4 18.99 18.99 31.65
11888 3 17.4075 20.5725 -30.0675
11889 1 17.4075 20.5725 -26.9025
11890 2 18.99 22.155 -25.32
11891 2 17.4075 20.5725 -23.7375
11892 2 18.99 22.155 -22.155
11893 3 17.4075 20.5725 -20.5725
11894 1 18.99 22.155 -18.99
11895 3 17.4075 20.5725 -17.4075
11896 4 18.99 22.155 -15.825
11897 4 17.4075 20.5725 -14.2425
11898 4 18.99 22.155 -12.66
11899 1 18.99 22.155 -9.495
11900 2 17.4075 20.5725 -7.9125
11901 3 18.99 22.155 -6.33
11902 1 17.4075 20.5725 -4.7475
11903 2 18.99 22.155 -3.165
11904 1 17.4075 20.5725 -1.5825
11905 1 18.99 22.155 0.0
11906 4 17.4075 20.5725 1.5825
11907 4 18.99 22.155 3.165
11908 4 17.4075 20.5725 4.7475
11909 2 18.99 22.155 6.33
11910 2 17.4075 20.5725 7.9125
11911 3 18.99 22.155 9.495
11912 4 17.4075 20.5725 11.0775
11913 4 18.99 22.155 12.66
11914 1 17.4075 20.5725 14.2425
11915 4 18.99 22.155 15.825
11916 2 17.4075 20.5725 17.4075
11917 4 18.99 22.155 18.99
11918 3 17.4075 20.5725 20.5725
11919 1 18.99 22.155 22.155
11920 4 17.4075 20.5725 23.7375
11921 4 18.99 22.155 25.32
11922 3 18.99 22.155 28.485
11923 2 17.4075 20.5725 30.0675
11924 2 18.99 22.155 31.65
11925 3 17.4075 23.7375 -30.0675
11926 3 18.99 25.32 -28.485
11927 2 17.4075 23.7375 -26.9025
11928 4 18.99 25.32 -25.32
11929 1 17.4075 23.7375 -23.7375
11930 4 18.99 25.32 -22.155
11931 2 17.4075 23.7375 -20.5725
11932 4 18.99 25.32 -18.99
11933 3 17.4075 23.7375 -17.4075
11934 2 18.99 25.32 -15.825
11935 4 17.4075 23.7375 -14.2425
11936 1 18.99 25.32 -12.66
11937 3 17.4075 23.7375 -11.0775
11938 2 18.99 25.32 -9.495
11939 1 17.4075 23.7375 -7.9125
11940 1 18.99 25.32 -6.33
11941 2 18.99 25.32 -3.165
11942 3 17.4075 23.7375 -1.5825
11943 1 18.99 25.32 0.0
11944 4 17.4075 23.7375 1.5825
11945 4 18.99 25.32 3.165
11946 1 17.4075 23.7375 4.7475
11947 4 18.99 25.32 6.33
11948 3 17.4075 23.7375 7.9125
11949 4 18.99 25.32 9.495
11950 4 17.4075 23.7375 11.0775
11951 2 18.99 25.32 12.66
11952 1 17.4075 23.7375 14.2425
11953 2 18.99 25.32 15.825
11954 2 17.4075 23.7375 17.4075
11955 4 18.99 25.32 18.99
11956 2 17.4075 23.7375 20.5725
11957 3 18.99 25.32 22.155
11958 3 17.4075 23.7375 23.7375
11959 1 17.4075 23.7375 26.9025
11960 3 18.99 25.32 28.485
11961 4 17.4075 23.7375 30.0675
11962 1 18.99 25.32 31.65
11963 2 17.4075 26.9025 -30.0675
11964 4 18.99 28.485 -28.485
11965 2 17.4075 26.9025 -26.9025
11966 4 18.99 28.485 -25.32
11967 4 17.4075 26.9025 -23.7375
11968 3 18.99 28.485 -22.155
11969 1 17.4075 26.9025 -20.5725
11970 4 17.4075 26.9025 -17.4075
11971 1 18.99 28.485 -15.825
11972 4 17.4075 26.9025 -14.2425
11973 2 18.99 28.485 -12.66
11974 4 17.4075 26.9025 -11.0775
11975 3 18.99 28.485 -9.495
11976 2 17.4075 26.9025 -7.9125
11977 4 18.99 28.485 -6.33
11978 2 17.4075 26.9025 -4.7475
11979 4 18.99 28.485 -3.165
11980 3 17.4075 26.9025 -1.5825
11981 1 18.99 28.485 0.0
11982 2 17.4075 26.9025 1.5825
11983 4 18.99 28.485 3.165
11984 3 18.99 28.485 6.33
11985 3 17.4075 26.9025 7.9125
11986 2 17.4075 26.9025 11.0775
11987 4 18.99 28.485 12.66
11988 3 17.4075 26.9025 14.2425
11989 3 18.99 28.485 15.825
11990 3 17.4075 26.9025 17.4075
11991 4 18.99 28.485 18.99
11992 1 17.4075 26.9025 20.5725
11993 1 18.99 28.485 22.155
11994 3 17.4075 26.9025 23.7375
11995 4 18.99 28.485 25.32
11996 2 17.4075 26.9025 26.9025
11997 4 18.99 28.485 28.485
11998 1 17.4075 26.9025 30.0675
11999 2 18.99 28.485 31.65
12000 2 17.4075 30.0675 -30.0675
12001 1 18.99 31.65 -28.485
12002 3 18.99 31.65 -25.32
12003 4 17.4075 30.0675 -23.7375
12004 4 18.99 31.65 -22.155
12005 3 17.4075 30.0675 -20.5725
12006 4 18.99 31.65 -18.99
12007 3 17.4075 30.0675 -17.4075
12008 4 18.99 31.65 -15.825
12009 3 17.4075 30.0675 -14.2425
12010 3 18.99 31.65 -12.66
12011 1 17.4075 30.0675 -11.0775
12012 1 18.99 31.65 -9.495
12013 3 17.4075 30.0675 -7.9125
12014 3 18.99 31.65 -6.33
12015 4 18.99 31.65 -3.165
12016 2 17.4075 30.0675 -1.5825
12017 2 18.99 31.65 0.0
12018 3 17.4075 30.0675 1.5825
12019 2 18.99 31.65 3.165
12020 4 17.4075 30.0675 4.7475
12021 1 18.99 31.65 6.33
12022 2 17.4075 30.0675 7.9125
12023 2 18.99 31.65 9.495
12024 4 17.4075 30.0675 11.0775
12025 1 18.99 31.65 12.66
12026 4 17.4075 30.0675 14.2425
12027 3 18.99 31.65 15.825
12028 4 17.4075 30.0675 17.4075
12029 3 18.99 31.65 18.99
12030 2 17.4075 30.0675 20.5725
12031 2 18.99 31.65 22.155
12032 1 17.4075 30.0675 23.7375
12033 3 18.99 31.65 25.32
12034 4 17.4075 30.0675 26.9025
12035 2 18.99 31.65 28.485
12036 3 17.4075 30.0675 30.0675
12037 1 18.99 31.65 31.65
12038 3 20.5725 -30.0675 -30.0675
12039 1 20.5725 -30.0675 -26.9025
12040 1 22.155 -28.485 -25.32
12041 2 20.5725 -30.0675 -23.7375
12042 1 22.155 -28.485 -22.155
12043 4 20.5725 -30.0675 -20.5725
12044 1 20.5725 -30.0675 -17.4075
12045 2 22.155 -28.485 -15.825
12046 2 20.5725 -30.0675 -14.2425
12047 3 22.155 -28.485 -12.66
12048 4 20.5725 -30.0675 -11.0775
12049 3 22.155 -28.485 -9.495
12050 2 20.5725 -30.0675 -7.9125
12051 4 22.155 -28.485 -6.33
12052 4 20.5725 -30.0675 -4.7475
12053 4 22.155 -28.485 -3.165
12054 1 20.5725 -30.0675 -1.5825
12055 3 22.155 -28.485 0.0
12056 1 22.155 -28.485 3.165
12057 3 20.5725 -30.0675 4.7475
12058 3 20.5725 -30.0675 7.9125
12059 2 22.155 -28.485 9.495
12060 2 20.5725 -30.0675 11.0775
12061 1 22.155 -28.485 12.66
12062 2 20.5725 -30.0675 14.2425
12063 2 22.155 -28.485 15.825
12064 4 20.5725 -30.0675 17.4075
12065 3 22.155 -28.485 18.99
12066 3 20.5725 -30.0675 20.5725
12067 2 22.155 -28.485 22.155
12068 2 20.5725 -30.0675 23.7375
12069 4 22.155 -28.485 25.32
12070 2 20.5725 -30.0675 26.9025
12071 4 22.155 -28.485 28.485
12072 3 20.5725 -30.0675 30.0675
12073 1 22.155 -28.485 31.65
12074 2 20.5725 -26.9025 -30.0675
12075 2 20.5725 -26.9025 -26.9025
12076 1 22.155 -25.32 -25.32
12077 4 20.5725 -26.9025 -23.7375
12078 1 22.155 -25.32 -22.155
12079 1 20.5725 -26.9025 -20.5725
12080 3 22.155 -25.32 -18.99
12081 1 20.5725 -26.9025 -17.4075
12082 4 22.155 -25.32 -15.825
12083 1 22.155 -25.32 -12.66
12084 3 20.5725 -26.9025 -11.0775
12085 1 22.155 -25.32 -9.495
12086 3 20.5725 -26.9025 -7.9125
12087 1 22.155 -25.32 -6.33
12088 2 20.5725 -26.9025 -4.7475
12089 3 22.155 -25.32 -3.165
12090 3 22.155 -25.32 0.0
12091 2 20.5725 -26.9025 1.5825
12092 1 22.155 -25.32 3.165
12093 3 20.5725 -26.9025 4.7475
12094 2 20.5725 -26.9025 7.9125
12095 4 22.155 -25.32 9.495
12096 2 20.5725 -26.9025 11.0775
12097 2 22.155 -25.32 12.66
12098 1 20.5725 -26.9025 14.2425
12099 3 20.5725 -26.9025 17.4075
12100 1 20.5725 -26.9025 20.5725
12101 4 22.155 -25.32 22.155
12102 1 20.5725 -26.9025 23.7375
12103 1 22.155 -25.32 25.32
12104 3 20.5725 -26.9025 26.9025
12105 2 22.155 -25.32 28.485
12106 1 20.5725 -26.9025 30.0675
12107 3 22.155 -25.32 31.65
12108 1 22.155 -22.155 -28.485
12109 1 20.5725 -23.7375 -26.9025
12110 4 22.155 -22.155 -22.155
12111 4 20.5725 -23.7375 -20.5725
12112 3 22.155 -22.155 -18.99
12113 1 20.5725 -23.7375 -17.4075
12114 4 22.155 -22.155 -15.825
12115 4 20.5725 -23.7375 -14.2425
12116 4 22.155 -22.155 -12.66
12117 2 20.5725 -23.7375 -11.0775
12118 1 22.155 -22.155 -9.495
12119 1 20.5725 -23.7375 -7.9125
12120 1 22.155 -22.155 -6.33
12121 3 20.5725 -23.7375 -4.7475
12122 2 22.155 -22.155 -3.165
12123 1 20.5725 -23.7375 -1.5825
12124 1 22.155 -22.155 0.0
12125 4 20.5725 -23.7375 1.5825
12126 2 22.155 -22.155 3.165
12127 4 20.5725 -23.7375 4.7475
12128 2 22.155 -22.155 6.33
12129 2 20.5725 -23.7375 7.9125
12130 3 22.155 -22.155 9.495
12131 2 20.5725 -23.7375 11.0775
12132 2 22.155 -22.155 12.66
12133 2 20.5725 -23.7375 14.2425
12134 3 22.155 -22.155 15.825
12135 4 20.5725 -23.7375 17.4075
12136 2 22.155 -22.155 18.99
12137 2 20.5725 -23.7375 20.5725
12138 1 22.155 -22.155 22.155
12139 1 20.5725 -23.7375 23.7375
12140 4 22.155 -22.155 25.32
12141 4 20.5725 -23.7375 26.9025
12142 2 20.5725 -23.7375 30.0675
12143 3 22.155 -22.155 31.65
12144 3 20.5725 -20.5725 -30.0675
12145 4 22.155 -18.99 -28.485
12146 1 20.5725 -20.5725 -26.9025
12147 4 22.155 -18.99 -25.32
12148 3 20.5725 -20.5725 -23.7375
12149 4 22.155 -18.99 -22.155
12150 2 20.5725 -20.5725 -20.5725
12151 3 22.155 -18.99 -18.99
12152 4 20.5725 -20.5725 -17.4075
12153 1 22.155 -18.99 -15.825
12154 3 20.5725 -20.5725 -14.2425
12155 1 22.155 -18.99 -12.66
12156 2 20.5725 -20.5725 -11.0775
12157 1 22.155 -18.99 -9.495
12158 1 20.5725 -20.5725 -7.9125
12159 4 22.155 -18.99 -6.33
12160 4 20.5725 -20.5725 -4.7475
12161 1 20.5725 -20.5725 -1.5825
12162 4 22.155 -18.99 0.0
12163 4 20.5725 -20.5725 1.5825
12164 4 22.155 -18.99 3.165
12165 2 20.5725 -20.5725 4.7475
12166 3 22.155 -18.99 6.33
12167 2 20.5725 -20.5725 7.9125
12168 1 22.155 -18.99 9.495
12169 1 20.5725 -20.5725 11.0775
12170 2 22.155 -18.99 12.66
12171 1 20.5725 -20.5725 14.2425
12172 1 22.155 -18.99 15.825
12173 4 20.5725 -20.5725 17.4075
12174 4 22.155 -18.99 18.99
12175 2 22.155 -18.99 25.32
12176 3 20.5725 -20.5725 26.9025
12177 1 22.155 -18.99 28.485
12178 2 20.5725 -20.5725 30.0675
12179 1 22.155 -18.99 31.65
12180 2 20.5725 -17.4075 -30.0675
12181 2 22.155 -15.825 -28.485
12182 4 20.5725 -17.4075 -26.9025
12183 1 22.155 -15.825 -25.32
12184 2 20.5725 -17.4075 -23.7375
12185 3 22.155 -15.825 -22.155
12186 1 20.5725 -17.4075 -20.5725
12187 2 22.155 -15.825 -18.99
12188 2 20.5725 -17.4075 -17.4075
12189 4 22.155 -15.825 -15.825
12190 1 20.5725 -17.4075 -14.2425
12191 1 22.155 -15.825 -12.66
12192 4 20.5725 -17.4075 -11.0775
12193 2 22.155 -15.825 -9.495
12194 3 20.5725 -17.4075 -7.9125
12195 2 22.155 -15.825 -6.33
12196 3 20.5725 -17.4075 -4.7475
12197 1 22.155 -15.825 -3.165
12198 2 20.5725 -17.4075 -1.5825
12199 1 22.155 -15.825 0.0
12200 2 20.5725 -17.4075 1.5825
12201 1 22.155 -15.825 3.165
12202 2 20.5725 -17.4075 4.7475
12203 1 22.155 -15.825 6.33
12204 4 20.5725 -17.4075 7.9125
12205 1 22.155 -15.825 9.495
12206 1 20.5725 -17.4075 11.0775
12207 3 22.155 -15.825 12.66
12208 2 20.5725 -17.4075 14.2425
12209 4 22.155 -15.825 15.825
12210 1 20.5725 -17.4075 17.4075
12211 1 22.155 -15.825 18.99
12212 4 20.5725 -17.4075 20.5725
12213 3 22.155 -15.825 22.155
12214 1 20.5725 -17.4075 23.7375
12215 3 20.5725 -17.4075 26.9025
12216 4 22.155 -15.825 28.485
12217 3 22.155 -15.825 31.65
12218 2 20.5725 -14.2425 -30.0675
12219 4 20.5725 -14.2425 -26.9025
12220 4 20.5725 -14.2425 -23.7375
12221 3 22.155 -12.66 -22.155
12222 1 20.5725 -14.2425 -20.5725
12223 3 22.155 -12.66 -18.99
12224 3 20.5725 -14.2425 -17.4075
12225 1 22.155 -12.66 -15.825
12226 2 20.5725 -14.2425 -14.2425
12227 4 22.155 -12.66 -12.66
12228 4 20.5725 -14.2425 -11.0775
12229 2 22.155 -12.66 -9.495
12230 4 20.5725 -14.2425 -7.9125
12231 3 22.155 -12.66 -6.33
12232 1 20.5725 -14.2425 -4.7475
12233 4 22.155 -12.66 -3.165
12234 3 20.5725 -14.2425 -1.5825
12235 2 22.155 -12.66 0.0
12236 3 20.5725 -14.2425 1.5825
12237 1 22.155 -12.66 3.165
12238 1 20.5725 -14.2425 4.7475
12239 1 22.155 -12.66 6.33
12240 4 20.5725 -14.2425 7.9125
12241 4 22.155 -12.66 9.495
12242 2 20.5725 -14.2425 11.0775
12243 1 22.155 -12.66 12.66
12244 4 22.155 -12.66 15.825
12245 1 20.5725 -14.2425 17.4075
12246 1 22.155 -12.66 18.99
12247 4 20.5725 -14.2425 20.5725
12248 4 22.155 -12.66 22.155
12249 2 22.155 -12.66 25.32
12250 1 20.5725 -14.2425 26.9025
12251 2 22.155 -12.66 28.485
12252 3 20.5725 -14.2425 30.0675
12253 2 22.155 -12.66 31.65
12254 1 20.5725 -11.0775 -30.0675
12255 1 22.155 -9.495 -28.485
12256 1 20.5725 -11.0775 -26.9025
12257 2 22.155 -9.495 -25.32
12258 2 20.5725 -11.0775 -23.7375
12259 2 22.155 -9.495 -22.155
12260 1 20.5725 -11.0775 -20.5725
12261 1 22.155 -9.495 -18.99
12262 2 20.5725 -11.0775 -17.4075
12263 2 22.155 -9.495 -15.825
12264 2 20.5725 -11.0775 -14.2425
12265 1 22.155 -9.495 -12.66
12266 3 20.5725 -11.0775 -11.0775
12267 1 22.155 -9.495 -9.495
12268 2 20.5725 -11.0775 -7.9125
12269 4 20.5725 -11.0775 -4.7475
12270 4 22.155 -9.495 -3.165
12271 1 20.5725 -11.0775 -1.5825
12272 4 22.155 -9.495 0.0
12273 1 20.5725 -11.0775 1.5825
12274 3 22.155 -9.495 3.165
12275 4 20.5725 -11.0775 4.7475
12276 1 22.155 -9.495 6.33
12277 2 20.5725 -11.0775 7.9125
12278 2 22.155 -9.495 9.495
12279 4 20.5725 -11.0775 11.0775
12280 3 22.155 -9.495 12.66
12281 3 20.5725 -11.0775 14.2425
12282 3 22.155 -9.495 15.825
12283 1 20.5725 -11.0775 17.4075
12284 2 22.155 -9.495 18.99
12285 4 20.5725 -11.0775 20.5725
12286 2 22.155 -9.495 22.155
12287 3 20.5725 -11.0775 23.7375
12288 3 22.155 -9.495 25.32
12289 2 20.5725 -11.0775 26.9025
12290 1 22.155 -9.495 28.485
12291 4 20.5725 -11.0775 30.0675
12292 4 22.155 -9.495 31.65
12293 4 20.5725 -7.9125 -30.0675
12294 1 22.155 -6.33 -28.485
12295 2 20.5725 -7.9125 -26.9025
12296 2 22.155 -6.33 -25.32
12297 2 20.5725 -7.9125 -23.7375
12298 4 22.155 -6.33 -22.155
12299 1 20.5725 -7.9125 -20.5725
12300 3 22.155 -6.33 -18.99
12301 4 20.5725 -7.9125 -17.4075
12302 4 22.155 -6.33 -15.825
12303 2 20.5725 -7.9125 -14.2425
12304 1 22.155 -6.33 -12.66
12305 4 20.5725 -7.9125 -11.0775
12306 4 22.155 -6.33 -9.495
12307 1 20.5725 -7.9125 -7.9125
12308 4 22.155 -6.33 -6.33
12309 4 20.5725 -7.9125 -4.7475
12310 4 22.155 -6.33 -3.165
12311 3 20.5725 -7.9125 -1.5825
12312 1 22.155 -6.33 0.0
12313 4 20.5725 -7.9125 1.5825
12314 4 22.155 -6.33 3.165
12315 2 20.5725 -7.9125 4.7475
12316 2 22.155 -6.33 6.33
12317 3 20.5725 -7.9125 7.9125
12318 1 22.155 -6.33 9.495
12319 3 20.5725 -7.9125 11.0775
12320 1 22.155 -6.33 12.66
12321 4 20.5725 -7.9125 14.2425
12322 3 22.155 -6.33 15.825
12323 1 20.5725 -7.9125 17.4075
12324 3 22.155 -6.33 18.99
12325 3 20.5725 -7.9125 20.5725
12326 3 22.155 -6.33 22.155
12327 3 20.5725 -7.9125 23.7375
12328 4 22.155 -6.33 25.32
12329 2 20.5725 -7.9125 26.9025
12330 2 22.155 -6.33 28.485
12331 2 20.5725 -7.9125 30.0675
12332 1 22.155 -6.33 31.65
12333 3 20.5725 -4.7475 -30.0675
12334 4 20.5725 -4.7475 -26.9025
12335 4 22.155 -3.165 -25.32
12336 4 20.5725 -4.7475 -23.7375
12337 3 22.155 -3.165 -22.155
12338 4 20.5725 -4.7475 -20.5725
12339 3 22.155 -3.165 -18.99
12340 1 20.5725 -4.7475 -17.4075
12341 1 22.155 -3.165 -15.825
12342 3 20.5725 -4.7475 -14.2425
12343 2 22.155 -3.165 -12.66
12344 1 20.5725 -4.7475 -11.0775
12345 2 22.155 -3.165 -9.495
12346 2 20.5725 -4.7475 -7.9125
12347 3 22.155 -3.165 -6.33
12348 3 20.5725 -4.7475 -4.7475
12349 4 22.155 -3.165 -3.165
12350 4 20.5725 -4.7475 -1.5825
12351 1 22.155 -3.165 0.0
12352 4 20.5725 -4.7475 1.5825
12353 1 22.155 -3.165 3.165
12354 2 20.5725 -4.7475 4.7475
12355 4 22.155 -3.165 6.33
12356 3 20.5725 -4.7475 7.9125
12357 4 22.155 -3.165 9.495
12358 4 20.5725 -4.7475 11.0775
12359 2 22.155 -3.165 12.66
12360 1 20.5725 -4.7475 14.2425
12361 3 22.155 -3.165 15.825
12362 1 20.5725 -4.7475 17.4075
12363 3 22.155 -3.165 18.99
12364 3 20.5725 -4.7475 20.5725
12365 3 22.155 -3.165 22.155
12366 3 20.5725 -4.7475 23.7375
12367 1 22.155 -3.165 25.32
12368 4 20.5725 -4.7475 26.9025
12369 2 22.155 -3.165 28.485
12370 2 20.5725 -4.7475 30.0675
12371 3 22.155 -3.165 31.65
12372 3 20.5725 -1.5825 -30.0675
12373 4 22.155 0.0 -28.485
12374 4 20.5725 -1.5825 -26.9025
12375 2 22.155 0.0 -25.32
12376 1 20.5725 -1.5825 -23.7375
12377 3 22.155 0.0 -22.155
12378 2 20.5725 -1.5825 -20.5725
12379 1 22.155 0.0 -18.99
12380 4 20.5725 -1.5825 -17.4075
12381 4 22.155 0.0 -15.825
12382 4 20.5725 -1.5825 -14.2425
12383 2 22.155 0.0 -12.66
12384 1 20.5725 -1.5825 -11.0775
12385 4 22.155 0.0 -9.495
12386 2 20.5725 -1.5825 -7.9125
12387 2 20.5725 -1.5825 -4.7475
12388 2 22.155 0.0 -3.165
12389 3 20.5725 -1.5825 -1.5825
12390 4 22.155 0.0 0.0
12391 1 20.5725 -1.5825 1.5825
12392 3 22.155 0.0 3.165
12393 4 20.5725 -1.5825 4.7475
12394 2 22.155 0.0 6.33
12395 4 20.5725 -1.5825 7.9125
12396 1 22.155 0.0 9.495
12397 1 20.5725 -1.5825 11.0775
12398 3 22.155 0.0 12.66
12399 2 22.155 0.0 15.825
12400 1 20.5725 -1.5825 17.4075
12401 4 20.5725 -1.5825 20.5725
12402 3 22.155 0.0 22.155
12403 2 20.5725 -1.5825 23.7375
12404 4 22.155 0.0 25.32
12405 3 20.5725 -1.5825 26.9025
12406 4 22.155 0.0 28.485
12407 3 22.155 0.0 31.65
12408 1 20.5725 1.5825 -30.0675
12409 4 22.155 3.165 -28.485
12410 3 20.5725 1.5825 -26.9025
12411 4 22.155 3.165 -25.32
12412 1 20.5725 1.5825 -23.7375
12413 1 22.155 3.165 -22.155
12414 3 20.5725 1.5825 -20.5725
12415 2 22.155 3.165 -18.99
12416 3 20.5725 1.5825 -17.4075
12417 3 22.155 3.165 -15.825
12418 2 20.5725 1.5825 -14.2425
12419 3 22.155 3.165 -12.66
12420 2 20.5725 1.5825 -11.0775
12421 4 22.155 3.165 -9.495
12422 4 20.5725 1.5825 -7.9125
12423 3 22.155 3.165 -6.33
12424 1 20.5725 1.5825 -4.7475
12425 1 22.155 3.165 -3.165
12426 4 20.5725 1.5825 -1.5825
12427 1 22.155 3.165 0.0
12428 3 20.5725 1.5825 1.5825
12429 3 22.155 3.165 3.165
12430 4 20.5725 1.5825 4.7475
12431 1 22.155 3.165 6.33
12432 2 20.5725 1.5825 7.9125
12433 1 22.155 3.165 9.495
12434 3 20.5725 1.5825 11.0775
12435 3 22.155 3.165 12.66
12436 2 20.5725 1.5825 14.2425
12437 4 22.155 3.165 15.825
12438 4 20.5725 1.5825 17.4075
12439 3 22.155 3.165 18.99
12440 3 20.5725 1.5825 20.5725
12441 3 22.155 3.165 22.155
12442 1 20.5725 1.5825 23.7375
12443 1 22.155 3.165 25.32
12444 2 20.5725 1.5825 26.9025
12445 4 22.155 3.165 28.485
12446 3 20.5725 1.5825 30.0675
12447 2 22.155 3.165 31.65
12448 1 20.5725 4.7475 -30.0675
12449 4 22.155 6.33 -28.485
12450 3 22.155 6.33 -25.32
12451 2 20.5725 4.7475 -23.7375
12452 2 22.155 6.33 -22.155
12453 2 20.5725 4.7475 -20.5725
12454 2 22.155 6.33 -18.99
12455 2 20.5725 4.7475 -17.4075
12456 2 22.155 6.33 -15.825
12457 3 20.5725 4.7475 -14.2425
12458 4 22.155 6.33 -12.66
12459 3 20.5725 4.7475 -11.0775
12460 1 22.155 6.33 -9.495
12461 1 20.5725 4.7475 -7.9125
12462 4 22.155 6.33 -6.33
12463 3 20.5725 4.7475 -4.7475
12464 2 22.155 6.33 -3.165
12465 2 20.5725 4.7475 -1.5825
12466 3 22.155 6.33 0.0
12467 4 22.155 6.33 3.165
12468 2 20.5725 4.7475 4.7475
12469 3 22.155 6.33 6.33
12470 1 20.5725 4.7475 7.9125
12471 1 22.155 6.33 9.495
12472 4 20.5725 4.7475 11.0775
12473 4 22.155 6.33 12.66
12474 4 20.5725 4.7475 14.2425
12475 2 22.155 6.33 15.825
12476 2 20.5725 4.7475 17.4075
12477 2 22.155 6.33 18.99
12478 4 20.5725 4.7475 20.5725
12479 3 22.155 6.33 22.155
12480 1 20.5725 4.7475 23.7375
12481 2 22.155 6.33 25.32
12482 1 22.155 6.33 28.485
12483 4 20.5725 4.7475 30.0675
12484 3 22.155 6.33 31.65
12485 2 20.5725 7.9125 -30.0675
12486 2 22.155 9.495 -28.485
12487 1 20.5725 7.9125 -26.9025
12488 4 22.155 9.495 -25.32
12489 2 20.5725 7.9125 -23.7375
12490 4 22.155 9.495 -22.155
12491 3 20.5725 7.9125 -20.5725
12492 2 22.155 9.495 -18.99
12493 1 22.155 9.495 -15.825
12494 4 20.5725 7.9125 -14.2425
12495 1 22.155 9.495 -12.66
12496 3 20.5725 7.9125 -11.0775
12497 1 22.155 9.495 -9.495
12498 4 20.5725 7.9125 -7.9125
12499 1 22.155 9.495 -6.33
12500 2 20.5725 7.9125 -4.7475
12501 2 22.155 9.495 -3.165
12502 2 20.5725 7.9125 -1.5825
12503 2 22.155 9.495 0.0
12504 2 20.5725 7.9125 1.5825
12505 3 20.5725 7.9125 4.7475
12506 3 22.155 9.495 6.33
12507 2 20.5725 7.9125 7.9125
12508 4 22.155 9.495 9.495
12509 4 22.155 9.495 12.66
12510 3 20.5725 7.9125 14.2425
12511 1 22.155 9.495 15.825
12512 2 20.5725 7.9125 17.4075
12513 2 22.155 9.495 18.99
12514 2 20.5725 7.9125 20.5725
12515 1 22.155 9.495 22.155
12516 1 20.5725 7.9125 23.7375
12517 1 22.155 9.495 25.32
12518 1 20.5725 7.9125 26.9025
12519 3 22.155 9.495 28.485
12520 3 20.5725 7.9125 30.0675
12521 3 22.155 9.495 31.65
12522 1 20.5725 11.0775 -30.0675
12523 3 22.155 12.66 -28.485
12524 3 20.5725 11.0775 -26.9025
12525 1 20.5725 11.0775 -23.7375
12526 2 22.155 12.66 -22.155
12527 1 20.5725 11.0775 -20.5725
12528 3 22.155 12.66 -18.99
12529 1 20.5725 11.0775 -17.4075
12530 1 22.155 12.66 -15.825
12531 2 20.5725 11.0775 -14.2425
12532 1 22.155 12.66 -12.66
12533 3 20.5725 11.0775 -11.0775
12534 4 22.155 12.66 -9.495
12535 3 20.5725 11.0775 -7.9125
12536 1 22.155 12.66 -6.33
12537 2 20.5725 11.0775 -4.7475
12538 1 22.155 12.66 -3.165
12539 1 20.5725 11.0775 -1.5825
12540 3 22.155 12.66 0.0
12541 1 20.5725 11.0775 1.5825
12542 4 22.155 12.66 3.165
12543 2 20.5725 11.0775 4.7475
12544 4 22.155 12.66 6.33
12545 3 20.5725 11.0775 7.9125
12546 3 22.155 12.66 9.495
12547 3 20.5725 11.0775 11.0775
12548 2 22.155 12.66 12.66
12549 3 20.5725 11.0775 14.2425
12550 4 22.155 12.66 15.825
12551 4 20.5725 11.0775 17.4075
12552 4 22.155 12.66 18.99
12553 2 20.5725 11.0775 20.5725
12554 3 22.155 12.66 22.155
12555 4 20.5725 11.0775 23.7375
12556 4 22.155 12.66 25.32
12557 3 20.5725 11.0775 26.9025
12558 4 22.155 12.66 28.485
12559 1 20.5725 11.0775 30.0675
12560 1 22.155 12.66 31.65
12561 3 20.5725 14.2425 -30.0675
12562 2 22.155 15.825 -28.485
12563 2 20.5725 14.2425 -26.9025
12564 1 22.155 15.825 -25.32
12565 2 20.5725 14.2425 -23.7375
12566 2 22.155 15.825 -22.155
12567 3 20.5725 14.2425 -20.5725
12568 1 22.155 15.825 -18.99
12569 3 20.5725 14.2425 -17.4075
12570 1 22.155 15.825 -15.825
12571 3 20.5725 14.2425 -14.2425
12572 4 22.155 15.825 -12.66
12573 4 20.5725 14.2425 -11.0775
12574 2 22.155 15.825 -9.495
12575 1 20.5725 14.2425 -7.9125
12576 3 22.155 15.825 -6.33
12577 2 20.5725 14.2425 -4.7475
12578 1 22.155 15.825 -3.165
12579 2 20.5725 14.2425 -1.5825
12580 1 22.155 15.825 0.0
12581 1 20.5725 14.2425 1.5825
12582 3 22.155 15.825 3.165
12583 2 20.5725 14.2425 4.7475
12584 2 22.155 15.825 6.33
12585 3 20.5725 14.2425 7.9125
12586 3 22.155 15.825 9.495
12587 3 20.5725 14.2425 11.0775
12588 4 22.155 15.825 12.66
12589 4 20.5725 14.2425 14.2425
12590 3 20.5725 14.2425 17.4075
12591 2 22.155 15.825 18.99
12592 4 22.155 15.825 22.155
12593 1 20.5725 14.2425 23.7375
12594 1 22.155 15.825 25.32
12595 4 20.5725 14.2425 26.9025
12596 4 22.155 15.825 28.485
12597 2 20.5725 14.2425 30.0675
12598 3 22.155 15.825 31.65
12599 4 20.5725 17.4075 -30.0675
12600 1 22.155 18.99 -28.485
12601 4 20.5725 17.4075 -26.9025
12602 4 22.155 18.99 -25.32
12603 2 20.5725 17.4075 -23.7375
12604 2 22.155 18.99 -22.155
12605 2 20.5725 17.4075 -20.5725
12606 2 22.155 18.99 -18.99
12607 4 20.5725 17.4075 -17.4075
12608 3 22.155 18.99 -15.825
12609 1 20.5725 17.4075 -14.2425
12610 3 22.155 18.99 -12.66
12611 2 20.5725 17.4075 -11.0775
12612 2 22.155 18.99 -9.495
12613 4 20.5725 17.4075 -7.9125
12614 2 22.155 18.99 -6.33
12615 4 20.5725 17.4075 -4.7475
12616 1 22.155 18.99 -3.165
12617 4 20.5725 17.4075 -1.5825
12618 4 22.155 18.99 0.0
12619 4 20.5725 17.4075 1.5825
12620 3 22.155 18.99 3.165
12621 2 20.5725 17.4075 4.7475
12622 2 22.155 18.99 6.33
12623 1 20.5725 17.4075 7.9125
12624 1 22.155 18.99 9.495
12625 4 22.155 18.99 12.66
12626 1 20.5725 17.4075 14.2425
12627 2 22.155 18.99 15.825
12628 4 20.5725 17.4075 17.4075
12629 4 20.5725 17.4075 20.5725
12630 2 22.155 18.99 22.155
12631 1 20.5725 17.4075 23.7375
12632 3 22.155 18.99 25.32
12633 2 20.5725 17.4075 26.9025
12634 3 22.155 18.99 28.485
12635 3 20.5725 17.4075 30.0675
12636 1 22.155 18.99 31.65
12637 3 20.5725 20.5725 -30.0675
12638 2 22.155 22.155 -28.485
12639 4 20.5725 20.5725 -26.9025
12640 1 22.155 22.155 -25.32
12641 2 20.5725 20.5725 -23.7375
12642 3 22.155 22.155 -22.155
12643 4 22.155 22.155 -18.99
12644 3 20.5725 20.5725 -17.4075
12645 2 20.5725 20.5725 -14.2425
12646 1 22.155 22.155 -12.66
12647 2 20.5725 20.5725 -11.0775
12648 4 22.155 22.155 -9.495
12649 4 20.5725 20.5725 -7.9125
12650 3 22.155 22.155 -6.33
12651 2 20.5725 20.5725 -4.7475
12652 2 22.155 22.155 -3.165
12653 4 20.5725 20.5725 -1.5825
12654 3 22.155 22.155 0.0
12655 1 20.5725 20.5725 1.5825
12656 2 22.155 22.155 3.165
12657 4 20.5725 20.5725 4.7475
12658 1 22.155 22.155 6.33
12659 3 20.5725 20.5725 7.9125
12660 1 22.155 22.155 9.495
12661 4 20.5725 20.5725 11.0775
12662 1 22.155 22.155 12.66
12663 1 20.5725 20.5725 14.2425
12664 4 22.155 22.155 15.825
12665 3 20.5725 20.5725 17.4075
12666 1 22.155 22.155 18.99
12667 1 20.5725 20.5725 20.5725
12668 4 22.155 22.155 22.155
12669 1 22.155 22.155 25.32
12670 1 20.5725 20.5725 26.9025
12671 2 22.155 22.155 28.485
12672 3 20.5725 20.5725 30.0675
12673 3 22.155 22.155 31.65
12674 3 20.5725 23.7375 -30.0675
12675 1 22.155 25.32 -28.485
12676 2 20.5725 23.7375 -26.9025
12677 3 22.155 25.32 -25.32
12678 3 20.5725 23.7375 -23.7375
12679 2 22.155 25.32 -22.155
12680 1 20.5725 23.7375 -20.5725
12681 1 22.155 25.32 -18.99
12682 3 20.5725 23.7375 -17.4075
12683 4 22.155 25.32 -15.825
12684 2 20.5725 23.7375 -14.2425
12685 2 20.5725 23.7375 -11.0775
12686 3 22.155 25.32 -9.495
12687 4 20.5725 23.7375 -7.9125
12688 4 22.155 25.32 -6.33
12689 1 20.5725 23.7375 -4.7475
12690 2 22.155 25.32 -3.165
12691 3 20.5725 23.7375 -1.5825
12692 1 22.155 25.32 0.0
12693 3 22.155 25.32 3.165
12694 4 20.5725 23.7375 4.7475
12695 2 22.155 25.32 6.33
12696 2 20.5725 23.7375 7.9125
12697 3 22.155 25.32 9.495
12698 1 20.5725 23.7375 11.0775
12699 4 22.155 25.32 12.66
12700 2 20.5725 23.7375 14.2425
12701 3 22.155 25.32 15.825
12702 2 20.5725 23.7375 17.4075
12703 3 22.155 25.32 18.99
12704 2 20.5725 23.7375 20.5725
12705 1 22.155 25.32 22.155
12706 1 20.5725 23.7375 23.7375
12707 4 22.155 25.32 25.32
12708 1 20.5725 23.7375 26.9025
12709 4 22.155 25.32 28.485
12710 4 20.5725 23.7375 30.0675
12711 1 22.155 25.32 31.65
12712 3 20.5725 26.9025 -30.0675
12713 3 22.155 28.485 -28.485
12714 3 20.5725 26.9025 -26.9025
12715 2 22.155 28.485 -25.32
12716 4 20.5725 26.9025 -23.7375
12717 1 22.155 28.485 -22.155
12718 4 20.5725 26.9025 -20.5725
12719 3 22.155 28.485 -18.99
12720 2 20.5725 26.9025 -17.4075
12721 1 22.155 28.485 -15.825
12722 4 20.5725 26.9025 -14.2425
12723 3 22.155 28.485 -12.66
12724 3 20.5725 26.9025 -11.0775
12725 4 22.155 28.485 -9.495
12726 2 20.5725 26.9025 -7.9125
12727 4 22.155 28.485 -6.33
12728 4 22.155 28.485 -3.165
12729 3 20.5725 26.9025 -1.5825
12730 3 22.155 28.485 0.0
12731 4 20.5725 26.9025 1.5825
12732 4 22.155 28.485 3.165
12733 2 20.5725 26.9025 4.7475
12734 4 22.155 28.485 6.33
12735 3 20.5725 26.9025 7.9125
12736 2 22.155 28.485 9.495
12737 2 22.155 28.485 12.66
12738 1 20.5725 26.9025 14.2425
12739 2 22.155 28.485 15.825
12740 2 20.5725 26.9025 17.4075
12741 3 22.155 28.485 18.99
12742 2 20.5725 26.9025 20.5725
12743 2 22.155 28.485 22.155
12744 3 20.5725 26.9025 23.7375
12745 1 22.155 28.485 25.32
12746 4 22.155 28.485 28.485
12747 1 20.5725 26.9025 30.0675
12748 2 22.155 28.485 31.65
12749 1 20.5725 30.0675 -30.0675
12750 2 22.155 31.65 -28.485
12751 2 20.5725 30.0675 -26.9025
12752 3 22.155 31.65 -25.32
12753 2 20.5725 30.0675 -23.7375
12754 1 22.155 31.65 -22.155
12755 2 20.5725 30.0675 -20.5725
12756 2 22.155 31.65 -18.99
12757 1 20.5725 30.0675 -17.4075
12758 3 20.5725 30.0675 -14.2425
12759 1 22.155 31.65 -12.66
12760 2 20.5725 30.0675 -11.0775
12761 1 22.155 31.65 -9.495
12762 3 20.5725 30.0675 -7.9125
12763 2 22.155 31.65 -6.33
12764 3 20.5725 30.0675 -4.7475
12765 2 22.155 31.65 -3.165
12766 4 20.5725 30.0675 -1.5825
12767 3 22.155 31.65 0.0
12768 4 20.5725 30.0675 1.5825
12769 1 22.155 31.65 3.165
12770 1 20.5725 30.0675 4.7475
12771 1 22.155 31.65 6.33
12772 1 20.5725 30.0675 7.9125
12773 2 22.155 31.65 9.495
12774 4 20.5725 30.0675 11.0775
12775 3 20.5725 30.0675 14.2425
12776 2 22.155 31.65 15.825
12777 2 20.5725 30.0675 17.4075
12778 4 22.155 31.65 18.99
12779 3 20.5725 30.0675 20.5725
12780 3 22.155 31.65 22.155
12781 3 20.5725 30.0675 23.7375
12782 1 22.155 31.65 25.32
12783 4 20.5725 30.0675 26.9025
12784 2 22.155 31.65 28.485
12785 3 20.5725 30.0675 30.0675
12786 4 22.155 31.65 31.65
12787 4 23.7375 -30.0675 -30.0675
12788 1 25.32 -28.485 -28.485
12789 1 23.7375 -30.0675 -26.9025
12790 3 25.32 -28.485 -25.32
12791 4 23.7375 -30.0675 -23.7375
12792 3 25.32 -28.485 -22.155
12793 3 23.7375 -30.0675 -20.5725
12794 4 25.32 -28.485 -18.99
12795 2 23.7375 -30.0675 -17.4075
12796 3 25.32 -28.485 -15.825
12797 2 23.7375 -30.0675 -14.2425
12798 2 25.32 -28.485 -12.66
12799 2 23.7375 -30.0675 -11.0775
12800 2 23.7375 -30.0675 -7.9125
12801 3 25.32 -28.485 -6.33
12802 3 23.7375 -30.0675 -4.7475
12803 2 25.32 -28.485 -3.165
12804 2 23.7375 -30.0675 -1.5825
12805 4 25.32 -28.485 0.0
12806 4 25.32 -28.485 3.165
12807 3 23.7375 -30.0675 4.7475
12808 3 25.32 -28.485 6.33
12809 4 23.7375 -30.0675 7.9125
12810 3 25.32 -28.485 9.495
12811 3 23.7375 -30.0675 11.0775
12812 2 25.32 -28.485 12.66
12813 4 23.7375 -30.0675 14.2425
12814 1 25.32 -28.485 15.825
12815 4 23.7375 -30.0675 17.4075
12816 1 25.32 -28.485 18.99
12817 4 23.7375 -30.0675 20.5725
12818 1 25.32 -28.485 22.155
12819 4 23.7375 -30.0675 23.7375
12820 4 25.32 -28.485 28.485
12821 2 23.7375 -30.0675 30.0675
12822 2 25.32 -28.485 31.65
12823 3 25.32 -25.32 -28.485
12824 3 23.7375 -26.9025 -26.9025
12825 2 25.32 -25.32 -25.32
12826 4 23.7375 -26.9025 -23.7375
12827 1 23.7375 -26.9025 -20.5725
12828 1 25.32 -25.32 -18.99
12829 1 25.32 -25.32 -15.825
12830 1 23.7375 -26.9025 -14.2425
12831 1 25.32 -25.32 -12.66
12832 4 23.7375 -26.9025 -11.0775
12833 4 25.32 -25.32 -9.495
12834 2 23.7375 -26.9025 -7.9125
12835 1 25.32 -25.32 -6.33
12836 4 23.7375 -26.9025 -4.7475
12837 4 25.32 -25.32 -3.165
12838 1 23.7375 -26.9025 -1.5825
12839 3 25.32 -25.32 0.0
12840 1 23.7375 -26.9025 1.5825
12841 1 25.32 -25.32 3.165
12842 1 23.7375 -26.9025 4.7475
12843 2 23.7375 -26.9025 7.9125
12844 1 25.32 -25.32 9.495
12845 2 23.7375 -26.9025 11.0775
12846 2 25.32 -25.32 12.66
12847 1 23.7375 -26.9025 14.2425
12848 1 25.32 -25.32 15.825
12849 2 23.7375 -26.9025 17.4075
12850 4 25.32 -25.32 18.99
12851 4 23.7375 -26.9025 20.5725
12852 2 25.32 -25.32 22.155
12853 4 23.7375 -26.9025 23.7375
12854 2 25.32 -25.32 25.32
12855 3 23.7375 -26.9025 26.9025
12856 2 25.32 -25.32 28.485
12857 1 23.7375 -26.9025 30.0675
12858 1 25.32 -25.32 31.65
12859 1 23.7375 -23.7375 -30.0675
12860 4 25.32 -22.155 -28.485
12861 1 23.7375 -23.7375 -26.9025
12862 3 25.32 -22.155 -25.32
12863 3 23.7375 -23.7375 -23.7375
12864 1 25.32 -22.155 -22.155
12865 3 23.7375 -23.7375 -20.5725
12866 3 25.32 -22.155 -18.99
12867 3 23.7375 -23.7375 -17.4075
12868 3 25.32 -22.155 -15.825
12869 4 23.7375 -23.7375 -14.2425
12870 4 25.32 -22.155 -12.66
12871 1 23.7375 -23.7375 -11.0775
12872 4 25.32 -22.155 -9.495
12873 2 23.7375 -23.7375 -7.9125
12874 1 25.32 -22.155 -6.33
12875 2 23.7375 -23.7375 -4.7475
12876 4 25.32 -22.155 -3.165
12877 3 23.7375 -23.7375 -1.5825
12878 2 25.32 -22.155 0.0
12879 2 23.7375 -23.7375 1.5825
12880 2 25.32 -22.155 3.165
12881 4 23.7375 -23.7375 4.7475
12882 3 25.32 -22.155 6.33
12883 3 23.7375 -23.7375 7.9125
12884 3 25.32 -22.155 9.495
12885 3 23.7375 -23.7375 11.0775
12886 3 25.32 -22.155 12.66
12887 1 23.7375 -23.7375 14.2425
12888 1 25.32 -22.155 15.825
12889 1 23.7375 -23.7375 17.4075
12890 4 25.32 -22.155 18.99
12891 4 25.32 -22.155 22.155
12892 2 23.7375 -23.7375 23.7375
12893 3 25.32 -22.155 25.32
12894 4 23.7375 -23.7375 26.9025
12895 3 25.32 -22.155 28.485
12896 2 23.7375 -23.7375 30.0675
12897 1 23.7375 -20.5725 -30.0675
12898 4 25.32 -18.99 -28.485
12899 1 23.7375 -20.5725 -26.9025
12900 1 23.7375 -20.5725 -23.7375
12901 2 25.32 -18.99 -22.155
12902 3 23.7375 -20.5725 -20.5725
12903 2 25.32 -18.99 -18.99
12904 4 23.7375 -20.5725 -17.4075
12905 2 25.32 -18.99 -15.825
12906 2 23.7375 -20.5725 -14.2425
12907 4 25.32 -18.99 -12.66
12908 3 23.7375 -20.5725 -11.0775
12909 3 25.32 -18.99 -9.495
12910 1 23.7375 -20.5725 -7.9125
12911 3 25.32 -18.99 -6.33
12912 4 23.7375 -20.5725 -4.7475
12913 3 25.32 -18.99 -3.165
12914 1 23.7375 -20.5725 -1.5825
12915 3 25.32 -18.99 0.0
12916 2 23.7375 -20.5725 1.5825
12917 1 25.32 -18.99 3.165
12918 3 23.7375 -20.5725 4.7475
12919 1 25.32 -18.99 6.33
12920 4 23.7375 -20.5725 7.9125
12921 4 25.32 -18.99 9.495
12922 1 23.7375 -20.5725 11.0775
12923 3 25.32 -18.99 12.66
12924 3 23.7375 -20.5725 14.2425
12925 2 25.32 -18.99 15.825
12926 2 23.7375 -20.5725 17.4075
12927 2 25.32 -18.99 18.99
12928 2 23.7375 -20.5725 20.5725
12929 1 25.32 -18.99 22.155
12930 1 23.7375 -20.5725 23.7375
12931 1 25.32 -18.99 25.32
12932 2 25.32 -18.99 28.485
12933 4 23.7375 -20.5725 30.0675
12934 4 25.32 -18.99 31.65
12935 1 23.7375 -17.4075 -30.0675
12936 1 25.32 -15.825 -28.485
12937 2 23.7375 -17.4075 -26.9025
12938 4 25.32 -15.825 -25.32
12939 4 23.7375 -17.4075 -23.7375
12940 1 25.32 -15.825 -22.155
12941 4 23.7375 -17.4075 -20.5725
12942 4 25.32 -15.825 -18.99
12943 4 23.7375 -17.4075 -17.4075
12944 2 23.7375 -17.4075 -14.2425
12945 3 25.32 -15.825 -12.66
12946 4 23.7375 -17.4075 -11.0775
12947 3 25.32 -15.825 -9.495
12948 1 23.7375 -17.4075 -7.9125
12949 3 25.32 -15.825 -6.33
12950 3 23.7375 -17.4075 -4.7475
12951 3 25.32 -15.825 -3.165
12952 2 23.7375 -17.4075 -1.5825
12953 3 25.32 -15.825 0.0
12954 4 23.7375 -17.4075 1.5825
12955 1 25.32 -15.825 3.165
12956 2 23.7375 -17.4075 4.7475
12957 2 25.32 -15.825 6.33
12958 3 23.7375 -17.4075 7.9125
12959 1 25.32 -15.825 9.495
12960 2 23.7375 -17.4075 11.0775
12961 4 25.32 -15.825 12.66
12962 1 23.7375 -17.4075 14.2425
12963 1 25.32 -15.825 15.825
12964 3 23.7375 -17.4075 17.4075
12965 3 25.32 -15.825 18.99
12966 2 25.32 -15.825 22.155
12967 1 23.7375 -17.4075 23.7375
12968 1 23.7375 -17.4075 26.9025
12969 4 25.32 -15.825 28.485
12970 4 23.7375 -17.4075 30.0675
12971 3 25.32 -15.825 31.65
12972 3 23.7375 -14.2425 -30.0675
12973 1 25.32 -12.66 -28.485
12974 2 23.7375 -14.2425 -26.9025
12975 4 25.32 -12.66 -25.32
12976 4 23.7375 -14.2425 -23.7375
12977 4 25.32 -12.66 -22.155
12978 2 23.7375 -14.2425 -20.5725
12979 1 25.32 -12.66 -18.99
12980 1 23.7375 -14.2425 -17.4075
12981 2 25.32 -12.66 -15.825
12982 1 23.7375 -14.2425 -14.2425
12983 1 25.32 -12.66 -12.66
12984 1 23.7375 -14.2425 -11.0775
12985 3 25.32 -12.66 -9.495
12986 2 23.7375 -14.2425 -7.9125
12987 3 25.32 -12.66 -6.33
12988 1 23.7375 -14.2425 -4.7475
12989 2 25.32 -12.66 -3.165
12990 1 23.7375 -14.2425 -1.5825
12991 4 25.32 -12.66 0.0
12992 1 23.7375 -14.2425 4.7475
12993 4 25.32 -12.66 6.33
12994 3 23.7375 -14.2425 7.9125
12995 3 25.32 -12.66 9.495
12996 1 23.7375 -14.2425 11.0775
12997 4 25.32 -12.66 12.66
12998 4 23.7375 -14.2425 14.2425
12999 4 25.32 -12.66 15.825
13000 3 23.7375 -14.2425 17.4075
13001 1 25.32 -12.66 18.99
13002 2 23.7375 -14.2425 20.5725
13003 2 25.32 -12.66 22.155
13004 1 23.7375 -14.2425 23.7375
13005 2 25.32 -12.66 25.32
13006 1 23.7375 -14.2425 26.9025
13007 4 25.32 -12.66 28.485
13008 1 23.7375 -14.2425 30.0675
13009 4 25.32 -12.66 31.65
13010 3 23.7375 -11.0775 -30.0675
13011 2 25.32 -9.495 -28.485
13012 3 23.7375 -11.0775 -26.9025
13013 4 25.32 -9.495 -25.32
13014 3 23.7375 -11.0775 -23.7375
13015 4 25.32 -9.495 -22.155
13016 1 23.7375 -11.0775 -20.5725
13017 1 25.32 -9.495 -18.99
13018 1 23.7375 -11.0775 -17.4075
13019 4 25.32 -9.495 -15.825
13020 4 23.7375 -11.0775 -14.2425
13021 1 25.32 -9.495 -12.66
13022 2 23.7375 -11.0775 -11.0775
13023 4 25.32 -9.495 -9.495
13024 1 23.7375 -11.0775 -7.9125
13025 1 25.32 -9.495 -6.33
13026 3 23.7375 -11.0775 -4.7475
13027 3 25.32 -9.495 -3.165
13028 3 23.7375 -11.0775 -1.5825
13029 4 25.32 -9.495 0.0
13030 1 23.7375 -11.0775 1.5825
13031 3 25.32 -9.495 3.165
13032 3 23.7375 -11.0775 4.7475
13033 3 25.32 -9.495 6.33
13034 1 23.7375 -11.0775 7.9125
13035 3 25.32 -9.495 9.495
13036 1 23.7375 -11.0775 11.0775
13037 1 25.32 -9.495 12.66
13038 3 23.7375 -11.0775 14.2425
13039 4 25.32 -9.495 15.825
13040 3 23.7375 -11.0775 17.4075
13041 1 25.32 -9.495 18.99
13042 3 23.7375 -11.0775 20.5725
13043 3 25.32 -9.495 22.155
13044 3 23.7375 -11.0775 23.7375
13045 1 25.32 -9.495 25.32
13046 1 23.7375 -11.0775 26.9025
13047 1 25.32 -9.495 28.485
13048 1 23.7375 -11.0775 30.0675
13049 3 25.32 -9.495 31.65
13050 2 23.7375 -7.9125 -30.0675
13051 1 25.32 -6.33 -28.485
13052 3 23.7375 -7.9125 -26.9025
13053 3 25.32 -6.33 -25.32
13054 3 23.7375 -7.9125 -23.7375
13055 3 25.32 -6.33 -22.155
13056 2 23.7375 -7.9125 -20.5725
13057 2 25.32 -6.33 -18.99
13058 1 23.7375 -7.9125 -17.4075
13059 4 25.32 -6.33 -15.825
13060 1 23.7375 -7.9125 -14.2425
13061 1 25.32 -6.33 -12.66
13062 4 23.7375 -7.9125 -11.0775
13063 3 25.32 -6.33 -9.495
13064 3 23.7375 -7.9125 -7.9125
13065 2 25.32 -6.33 -6.33
13066 1 23.7375 -7.9125 -4.7475
13067 1 25.32 -6.33 -3.165
13068 4 23.7375 -7.9125 -1.5825
13069 4 25.32 -6.33 0.0
13070 1 23.7375 -7.9125 1.5825
13071 1 25.32 -6.33 3.165
13072 4 23.7375 -7.9125 4.7475
13073 3 25.32 -6.33 6.33
13074 4 23.7375 -7.9125 7.9125
13075 2 23.7375 -7.9125 11.0775
13076 2 25.32 -6.33 15.825
13077 3 23.7375 -7.9125 17.4075
13078 2 25.32 -6.33 18.99
13079 1 23.7375 -7.9125 20.5725
13080 4 25.32 -6.33 22.155
13081 4 23.7375 -7.9125 23.7375
13082 2 25.32 -6.33 25.32
13083 2 23.7375 -7.9125 26.9025
13084 2 25.32 -6.33 28.485
13085 1 23.7375 -7.9125 30.0675
13086 2 25.32 -6.33 31.65
13087 4 23.7375 -4.7475 -30.0675
13088 2 25.32 -3.165 -28.485
13089 4 23.7375 -4.7475 -26.9025
13090 2 25.32 -3.165 -25.32
13091 4 23.7375 -4.7475 -23.7375
13092 4 25.32 -3.165 -22.155
13093 3 23.7375 -4.7475 -20.5725
13094 3 25.32 -3.165 -18.99
13095 2 23.7375 -4.7475 -17.4075
13096 3 25.32 -3.165 -15.825
13097 1 23.7375 -4.7475 -14.2425
13098 1 25.32 -3.165 -12.66
13099 4 25.32 -3.165 -9.495
13100 4 23.7375 -4.7475 -7.9125
13101 2 25.32 -3.165 -6.33
13102 1 23.7375 -4.7475 -4.7475
13103 3 25.32 -3.165 -3.165
13104 4 25.32 -3.165 0.0
13105 3 23.7375 -4.7475 1.5825
13106 1 25.32 -3.165 3.165
13107 4 23.7375 -4.7475 4.7475
13108 4 25.32 -3.165 6.33
13109 2 23.7375 -4.7475 7.9125
13110 2 25.32 -3.165 9.495
13111 4 23.7375 -4.7475 11.0775
13112 3 25.32 -3.165 12.66
13113 2 23.7375 -4.7475 14.2425
13114 2 25.32 -3.165 15.825
13115 1 23.7375 -4.7475 17.4075
13116 4 25.32 -3.165 18.99
13117 1 23.7375 -4.7475 20.5725
13118 2 25.32 -3.165 22.155
13119 3 23.7375 -4.7475 23.7375
13120 2 25.32 -3.165 25.32
13121 3 23.7375 -4.7475 26.9025
13122 2 25.32 -3.165 28.485
13123 4 23.7375 -4.7475 30.0675
13124 3 23.7375 -1.5825 -30.0675
13125 1 25.32 0.0 -28.485
13126 4 23.7375 -1.5825 -26.9025
13127 4 25.32 0.0 -25.32
13128 3 23.7375 -1.5825 -23.7375
13129 2 25.32 0.0 -22.155
13130 1 23.7375 -1.5825 -20.5725
13131 4 25.32 0.0 -18.99
13132 1 23.7375 -1.5825 -17.4075
13133 1 25.32 0.0 -15.825
13134 1 23.7375 -1.5825 -14.2425
13135 3 25.32 0.0 -12.66
13136 2 23.7375 -1.5825 -11.0775
13137 3 25.32 0.0 -9.495
13138 1 23.7375 -1.5825 -7.9125
13139 4 25.32 0.0 -6.33
13140 2 23.7375 -1.5825 -4.7475
13141 3 25.32 0.0 -3.165
13142 1 23.7375 -1.5825 -1.5825
13143 3 25.32 0.0 0.0
13144 3 23.7375 -1.5825 1.5825
13145 2 25.32 0.0 3.165
13146 2 23.7375 -1.5825 4.7475
13147 3 25.32 0.0 6.33
13148 2 23.7375 -1.5825 7.9125
13149 2 25.32 0.0 9.495
13150 2 23.7375 -1.5825 11.0775
13151 2 25.32 0.0 12.66
13152 1 23.7375 -1.5825 14.2425
13153 2 25.32 0.0 15.825
13154 3 25.32 0.0 18.99
13155 4 23.7375 -1.5825 20.5725
13156 2 25.32 0.0 22.155
13157 1 23.7375 -1.5825 23.7375
13158 4 25.32 0.0 25.32
13159 3 23.7375 -1.5825 26.9025
13160 1 25.32 0.0 28.485
13161 3 23.7375 -1.5825 30.0675
13162 1 23.7375 1.5825 -30.0675
13163 1 25.32 3.165 -28.485
13164 4 23.7375 1.5825 -26.9025
13165 2 25.32 3.165 -25.32
13166 1 23.7375 1.5825 -23.7375
13167 1 25.32 3.165 -22.155
13168 3 23.7375 1.5825 -20.5725
13169 4 25.32 3.165 -18.99
13170 2 23.7375 1.5825 -17.4075
13171 2 25.32 3.165 -15.825
13172 2 23.7375 1.5825 -14.2425
13173 1 25.32 3.165 -12.66
13174 3 23.7375 1.5825 -11.0775
13175 4 25.32 3.165 -9.495
13176 2 23.7375 1.5825 -7.9125
13177 4 25.32 3.165 -6.33
13178 4 23.7375 1.5825 -4.7475
13179 3 25.32 3.165 -3.165
13180 3 23.7375 1.5825 -1.5825
13181 3 25.32 3.165 0.0
13182 4 23.7375 1.5825 1.5825
13183 3 25.32 3.165 3.165
13184 1 23.7375 1.5825 4.7475
13185 3 25.32 3.165 6.33
13186 4 23.7375 1.5825 7.9125
13187 1 25.32 3.165 9.495
13188 1 23.7375 1.5825 11.0775
13189 1 25.32 3.165 12.66
13190 3 23.7375 1.5825 14.2425
13191 4 25.32 3.165 15.825
13192 4 23.7375 1.5825 17.4075
13193 1 25.32 3.165 18.99
13194 2 23.7375 1.5825 20.5725
13195 2 25.32 3.165 22.155
13196 2 23.7375 1.5825 23.7375
13197 4 25.32 3.165 25.32
13198 2 23.7375 1.5825 26.9025
13199 1 25.32 3.165 28.485
13200 1 23.7375 1.5825 30.0675
13201 3 25.32 3.165 31.65
13202 2 23.7375 4.7475 -30.0675
13203 4 25.32 6.33 -28.485
13204 4 23.7375 4.7475 -26.9025
13205 3 25.32 6.33 -25.32
13206 2 23.7375 4.7475 -23.7375
13207 1 25.32 6.33 -22.155
13208 1 25.32 6.33 -18.99
13209 4 23.7375 4.7475 -17.4075
13210 1 25.32 6.33 -15.825
13211 2 23.7375 4.7475 -14.2425
13212 3 25.32 6.33 -12.66
13213 2 23.7375 4.7475 -11.0775
13214 2 25.32 6.33 -9.495
13215 1 23.7375 4.7475 -7.9125
13216 2 25.32 6.33 -6.33
13217 1 23.7375 4.7475 -4.7475
13218 2 25.32 6.33 -3.165
13219 1 23.7375 4.7475 -1.5825
13220 2 25.32 6.33 0.0
13221 1 23.7375 4.7475 1.5825
13222 3 25.32 6.33 3.165
13223 4 23.7375 4.7475 4.7475
13224 3 25.32 6.33 6.33
13225 3 23.7375 4.7475 7.9125
13226 3 25.32 6.33 9.495
13227 4 23.7375 4.7475 11.0775
13228 4 25.32 6.33 12.66
13229 4 23.7375 4.7475 14.2425
13230 4 25.32 6.33 15.825
13231 2 23.7375 4.7475 17.4075
13232 3 25.32 6.33 18.99
13233 1 23.7375 4.7475 20.5725
13234 4 25.32 6.33 22.155
13235 2 23.7375 4.7475 23.7375
13236 3 25.32 6.33 25.32
13237 2 23.7375 4.7475 26.9025
13238 1 23.7375 4.7475 30.0675
13239 3 25.32 6.33 31.65
13240 1 23.7375 7.9125 -30.0675
13241 4 25.32 9.495 -28.485
13242 1 23.7375 7.9125 -26.9025
13243 3 25.32 9.495 -25.32
13244 1 23.7375 7.9125 -23.7375
13245 3 25.32 9.495 -22.155
13246 4 25.32 9.495 -18.99
13247 3 23.7375 7.9125 -17.4075
13248 3 25.32 9.495 -15.825
13249 1 23.7375 7.9125 -14.2425
13250 4 25.32 9.495 -12.66
13251 1 23.7375 7.9125 -11.0775
13252 3 25.32 9.495 -9.495
13253 2 23.7375 7.9125 -7.9125
13254 1 25.32 9.495 -6.33
13255 1 23.7375 7.9125 -4.7475
13256 3 25.32 9.495 -3.165
13257 3 23.7375 7.9125 -1.5825
13258 3 23.7375 7.9125 1.5825
13259 4 25.32 9.495 3.165
13260 2 23.7375 7.9125 4.7475
13261 4 25.32 9.495 6.33
13262 1 23.7375 7.9125 7.9125
13263 2 25.32 9.495 9.495
13264 4 23.7375 7.9125 11.0775
13265 3 25.32 9.495 12.66
13266 4 23.7375 7.9125 14.2425
13267 4 25.32 9.495 15.825
13268 4 23.7375 7.9125 17.4075
13269 4 25.32 9.495 18.99
13270 4 23.7375 7.9125 20.5725
13271 3 25.32 9.495 22.155
13272 4 23.7375 7.9125 23.7375
13273 1 25.32 9.495 25.32
13274 2 23.7375 7.9125 26.9025
13275 3 25.32 9.495 28.485
13276 2 23.7375 7.9125 30.0675
13277 4 25.32 12.66 -28.485
13278 2 23.7375 11.0775 -26.9025
13279 4 25.32 12.66 -25.32
13280 4 23.7375 11.0775 -23.7375
13281 3 25.32 12.66 -18.99
13282 2 23.7375 11.0775 -17.4075
13283 4 25.32 12.66 -15.825
13284 1 23.7375 11.0775 -14.2425
13285 3 25.32 12.66 -12.66
13286 2 23.7375 11.0775 -7.9125
13287 2 25.32 12.66 -6.33
13288 1 23.7375 11.0775 -4.7475
13289 2 25.32 12.66 -3.165
13290 1 23.7375 11.0775 -1.5825
13291 4 25.32 12.66 0.0
13292 3 23.7375 11.0775 1.5825
13293 3 25.32 12.66 3.165
13294 1 23.7375 11.0775 4.7475
13295 2 25.32 12.66 6.33
13296 2 23.7375 11.0775 7.9125
13297 4 25.32 12.66 9.495
13298 3 23.7375 11.0775 11.0775
13299 1 25.32 12.66 12.66
13300 4 23.7375 11.0775 14.2425
13301 1 25.32 12.66 15.825
13302 1 23.7375 11.0775 17.4075
13303 2 25.32 12.66 18.99
13304 4 23.7375 11.0775 20.5725
13305 4 25.32 12.66 22.155
13306 1 23.7375 11.0775 23.7375
13307 4 25.32 12.66 25.32
13308 4 25.32 12.66 31.65
13309 2 23.7375 14.2425 -30.0675
13310 4 25.32 15.825 -28.485
13311 1 23.7375 14.2425 -26.9025
13312 1 25.32 15.825 -25.32
13313 1 23.7375 14.2425 -23.7375
13314 1 25.32 15.825 -22.155
13315 1 23.7375 14.2425 -20.5725
13316 1 25.32 15.825 -18.99
13317 1 23.7375 14.2425 -17.4075
13318 3 23.7375 14.2425 -14.2425
13319 1 25.32 15.825 -12.66
13320 1 23.7375 14.2425 -11.0775
13321 2 25.32 15.825 -9.495
13322 3 23.7375 14.2425 -7.9125
13323 2 25.32 15.825 -6.33
13324 3 23.7375 14.2425 -4.7475
13325 4 25.32 15.825 -3.165
13326 4 23.7375 14.2425 -1.5825
13327 2 25.32 15.825 0.0
13328 4 23.7375 14.2425 1.5825
13329 1 25.32 15.825 3.165
13330 4 23.7375 14.2425 4.7475
13331 4 23.7375 14.2425 7.9125
13332 4 25.32 15.825 9.495
13333 1 25.32 15.825 12.66
13334 3 23.7375 14.2425 14.2425
13335 1 25.32 15.825 15.825
13336 2 23.7375 14.2425 17.4075
13337 4 23.7375 14.2425 20.5725
13338 3 25.32 15.825 22.155
13339 2 23.7375 14.2425 23.7375
13340 1 25.32 15.825 25.32
13341 3 23.7375 14.2425 26.9025
13342 1 25.32 15.825 28.485
13343 4 23.7375 14.2425 30.0675
13344 3 25.32 15.825 31.65
13345 4 23.7375 17.4075 -30.0675
13346 2 25.32 18.99 -28.485
13347 3 23.7375 17.4075 -26.9025
13348 1 25.32 18.99 -25.32
13349 1 23.7375 17.4075 -23.7375
13350 2 25.32 18.99 -22.155
13351 2 23.7375 17.4075 -20.5725
13352 4 25.32 18.99 -18.99
13353 4 23.7375 17.4075 -17.4075
13354 1 25.32 18.99 -15.825
13355 1 23.7375 17.4075 -14.2425
13356 2 25.32 18.99 -12.66
13357 3 23.7375 17.4075 -11.0775
13358 4 25.32 18.99 -9.495
13359 3 23.7375 17.4075 -7.9125
13360 4 25.32 18.99 -6.33
13361 2 23.7375 17.4075 -4.7475
13362 2 25.32 18.99 -3.165
13363 2 23.7375 17.4075 -1.5825
13364 2 25.32 18.99 0.0
13365 4 23.7375 17.4075 1.5825
13366 3 25.32 18.99 3.165
13367 2 23.7375 17.4075 4.7475
13368 1 25.32 18.99 6.33
13369 2 23.7375 17.4075 7.9125
13370 1 25.32 18.99 9.495
13371 3 23.7375 17.4075 11.0775
13372 1 25.32 18.99 12.66
13373 3 23.7375 17.4075 14.2425
13374 4 25.32 18.99 15.825
13375 1 25.32 18.99 18.99
13376 1 23.7375 17.4075 20.5725
13377 1 25.32 18.99 22.155
13378 1 23.7375 17.4075 23.7375
13379 3 25.32 18.99 25.32
13380 3 23.7375 17.4075 26.9025
13381 2 25.32 18.99 31.65
13382 4 23.7375 20.5725 -30.0675
13383 1 25.32 22.155 -28.485
13384 4 23.7375 20.5725 -26.9025
13385 3 25.32 22.155 -25.32
13386 3 23.7375 20.5725 -23.7375
13387 4 25.32 22.155 -22.155
13388 4 23.7375 20.5725 -20.5725
13389 4 25.32 22.155 -18.99
13390 1 23.7375 20.5725 -17.4075
13391 3 25.32 22.155 -15.825
13392 1 23.7375 20.5725 -14.2425
13393 1 23.7375 20.5725 -11.0775
13394 3 25.32 22.155 -9.495
13395 2 23.7375 20.5725 -7.9125
13396 2 25.32 22.155 -6.33
13397 1 23.7375 20.5725 -4.7475
13398 2 25.32 22.155 -3.165
13399 3 23.7375 20.5725 -1.5825
13400 4 25.32 22.155 0.0
13401 3 23.7375 20.5725 1.5825
13402 1 25.32 22.155 3.165
13403 3 23.7375 20.5725 4.7475
13404 3 25.32 22.155 6.33
13405 3 23.7375 20.5725 7.9125
13406 3 25.32 22.155 9.495
13407 3 23.7375 20.5725 11.0775
13408 4 25.32 22.155 12.66
13409 3 23.7375 20.5725 14.2425
13410 2 25.32 22.155 15.825
13411 2 23.7375 20.5725 17.4075
13412 4 25.32 22.155 18.99
13413 4 23.7375 20.5725 20.5725
13414 4 25.32 22.155 22.155
13415 2 23.7375 20.5725 23.7375
13416 3 23.7375 20.5725 26.9025
13417 1 25.32 22.155 28.485
13418 3 23.7375 20.5725 30.0675
13419 3 25.32 22.155 31.65
13420 4 23.7375 23.7375 -30.0675
13421 2 25.32 25.32 -28.485
13422 4 23.7375 23.7375 -26.9025
13423 2 25.32 25.32 -25.32
13424 1 23.7375 23.7375 -23.7375
13425 2 25.32 25.32 -22.155
13426 1 23.7375 23.7375 -20.5725
13427 2 25.32 25.32 -18.99
13428 2 23.7375 23.7375 -17.4075
13429 2 25.32 25.32 -15.825
13430 3 23.7375 23.7375 -14.2425
13431 3 25.32 25.32 -12.66
13432 3 23.7375 23.7375 -11.0775
13433 3 25.32 25.32 -9.495
13434 2 23.7375 23.7375 -7.9125
13435 1 25.32 25.32 -6.33
13436 4 23.7375 23.7375 -4.7475
13437 3 25.32 25.32 -3.165
13438 2 23.7375 23.7375 -1.5825
13439 3 25.32 25.32 0.0
13440 2 23.7375 23.7375 1.5825
13441 2 25.32 25.32 3.165
13442 3 23.7375 23.7375 4.7475
13443 3 25.32 25.32 6.33
13444 1 23.7375 23.7375 7.9125
13445 1 25.32 25.32 9.495
13446 1 23.7375 23.7375 11.0775
13447 4 25.32 25.32 12.66
13448 4 23.7375 23.7375 14.2425
13449 3 25.32 25.32 15.825
13450 1 23.7375 23.7375 17.4075
13451 4 25.32 25.32 18.99
13452 4 23.7375 23.7375 20.5725
13453 1 25.32 25.32 22.155
13454 1 23.7375 23.7375 23.7375
13455 2 25.32 25.32 25.32
13456 4 23.7375 23.7375 26.9025
13457 4 25.32 25.32 28.485
13458 2 23.7375 23.7375 30.0675
13459 1 25.32 25.32 31.65
13460 4 23.7375 26.9025 -30.0675
13461 2 25.32 28.485 -28.485
13462 3 23.7375 26.9025 -26.9025
13463 4 25.32 28.485 -25.32
13464 4 23.7375 26.9025 -23.7375
13465 2 23.7375 26.9025 -20.5725
13466 4 25.32 28.485 -18.99
13467 2 23.7375 26.9025 -17.4075
13468 4 25.32 28.485 -15.825
13469 4 23.7375 26.9025 -14.2425
13470 3 25.32 28.485 -12.66
13471 4 25.32 28.485 -9.495
13472 3 23.7375 26.9025 -7.9125
13473 3 25.32 28.485 -6.33
13474 4 23.7375 26.9025 -4.7475
13475 3 25.32 28.485 -3.165
13476 2 23.7375 26.9025 -1.5825
13477 4 25.32 28.485 0.0
13478 3 23.7375 26.9025 1.5825
13479 1 25.32 28.485 3.165
13480 4 23.7375 26.9025 4.7475
13481 4 25.32 28.485 6.33
13482 2 23.7375 26.9025 7.9125
13483 1 25.32 28.485 9.495
13484 4 23.7375 26.9025 11.0775
13485 3 25.32 28.485 12.66
13486 3 23.7375 26.9025 14.2425
13487 3 25.32 28.485 15.825
13488 1 23.7375 26.9025 17.4075
13489 2 25.32 28.485 18.99
13490 4 23.7375 26.9025 20.5725
13491 2 25.32 28.485 22.155
13492 2 23.7375 26.9025 23.7375
13493 2 25.32 28.485 25.32
13494 3 23.7375 26.9025 26.9025
13495 4 25.32 28.485 28.485
13496 2 23.7375 26.9025 30.0675
13497 4 25.32 28.485 31.65
13498 4 23.7375 30.0675 -30.0675
13499 2 25.32 31.65 -28.485
13500 3 23.7375 30.0675 -26.9025
13501 1 25.32 31.65 -25.32
13502 4 23.7375 30.0675 -23.7375
13503 4 25.32 31.65 -22.155
13504 1 23.7375 30.0675 -20.5725
13505 4 23.7375 30.0675 -17.4075
13506 1 25.32 31.65 -15.825
13507 4 23.7375 30.0675 -14.2425
13508 1 25.32 31.65 -12.66
13509 4 23.7375 30.0675 -11.0775
13510 2 25.32 31.65 -9.495
13511 2 23.7375 30.0675 -7.9125
13512 2 25.32 31.65 -6.33
13513 1 23.7375 30.0675 -4.7475
13514 1 25.32 31.65 -3.165
13515 2 23.7375 30.0675 -1.5825
13516 4 25.32 31.65 0.0
13517 4 23.7375 30.0675 1.5825
13518 1 25.32 31.65 3.165
13519 4 23.7375 30.0675 4.7475
13520 4 25.32 31.65 6.33
13521 1 23.7375 30.0675 7.9125
13522 4 25.32 31.65 9.495
13523 4 23.7375 30.0675 11.0775
13524 3 25.32 31.65 12.66
13525 2 23.7375 30.0675 14.2425
13526 3 25.32 31.65 15.825
13527 3 23.7375 30.0675 17.4075
13528 3 25.32 31.65 18.99
13529 1 23.7375 30.0675 20.5725
13530 2 25.32 31.65 22.155
13531 3 23.7375 30.0675 23.7375
13532 2 23.7375 30.0675 26.9025
13533 1 25.32 31.65 28.485
13534 1 23.7375 30.0675 30.0675
13535 3 25.32 31.65 31.65
13536 3 26.9025 -30.0675 -30.0675
13537 2 28.485 -28.485 -28.485
13538 1 26.9025 -30.0675 -26.9025
13539 4 28.485 -28.485 -25.32
13540 1 26.9025 -30.0675 -23.7375
13541 3 28.485 -28.485 -22.155
13542 3 26.9025 -30.0675 -20.5725
13543 2 26.9025 -30.0675 -17.4075
13544 3 28.485 -28.485 -15.825
13545 1 26.9025 -30.0675 -14.2425
13546 3 28.485 -28.485 -12.66
13547 3 26.9025 -30.0675 -11.0775
13548 2 28.485 -28.485 -9.495
13549 2 26.9025 -30.0675 -7.9125
13550 1 28.485 -28.485 -6.33
13551 4 26.9025 -30.0675 -4.7475
13552 1 28.485 -28.485 -3.165
13553 4 26.9025 -30.0675 -1.5825
13554 3 28.485 -28.485 0.0
13555 1 26.9025 -30.0675 1.5825
13556 1 28.485 -28.485 3.165
13557 3 26.9025 -30.0675 4.7475
13558 4 28.485 -28.485 6.33
13559 1 26.9025 -30.0675 7.9125
13560 1 28.485 -28.485 9.495
13561 1 26.9025 -30.0675 11.0775
13562 4 28.485 -28.485 12.66
13563 4 26.9025 -30.0675 14.2425
13564 3 28.485 -28.485 15.825
13565 3 28.485 -28.485 18.99
13566 3 26.9025 -30.0675 20.5725
13567 2 28.485 -28.485 22.155
13568 1 26.9025 -30.0675 23.7375
13569 4 28.485 -28.485 25.32
13570 1 26.9025 -30.0675 26.9025
13571 1 28.485 -28.485 28.485
13572 4 26.9025 -30.0675 30.0675
13573 1 28.485 -28.485 31.65
13574 2 26.9025 -26.9025 -30.0675
13575 2 28.485 -25.32 -28.485
13576 3 26.9025 -26.9025 -26.9025
13577 3 28.485 -25.32 -25.32
13578 4 26.9025 -26.9025 -23.7375
13579 4 28.485 -25.32 -22.155
13580 1 26.9025 -26.9025 -20.5725
13581 3 26.9025 -26.9025 -17.4075
13582 4 28.485 -25.32 -15.825
13583 3 26.9025 -26.9025 -14.2425
13584 3 28.485 -25.32 -12.66
13585 1 26.9025 -26.9025 -11.0775
13586 2 28.485 -25.32 -9.495
13587 2 26.9025 -26.9025 -7.9125
13588 1 26.9025 -26.9025 -4.7475
13589 4 28.485 -25.32 -3.165
13590 3 26.9025 -26.9025 -1.5825
13591 3 28.485 -25.32 0.0
13592 1 26.9025 -26.9025 1.5825
13593 1 28.485 -25.32 3.165
13594 2 26.9025 -26.9025 4.7475
13595 2 28.485 -25.32 6.33
13596 2 26.9025 -26.9025 7.9125
13597 1 28.485 -25.32 9.495
13598 2 26.9025 -26.9025 11.0775
13599 1 28.485 -25.32 12.66
13600 3 28.485 -25.32 15.825
13601 4 28.485 -25.32 18.99
13602 4 26.9025 -26.9025 20.5725
13603 2 28.485 -25.32 22.155
13604 1 26.9025 -26.9025 23.7375
13605 1 28.485 -25.32 25.32
13606 4 26.9025 -26.9025 26.9025
13607 2 28.485 -25.32 28.485
13608 4 26.9025 -26.9025 30.0675
13609 2 28.485 -25.32 31.65
13610 1 26.9025 -23.7375 -30.0675
13611 2 28.485 -22.155 -28.485
13612 3 26.9025 -23.7375 -26.9025
13613 2 28.485 -22.155 -25.32
13614 4 26.9025 -23.7375 -23.7375
13615 2 28.485 -22.155 -22.155
13616 3 26.9025 -23.7375 -20.5725
13617 3 28.485 -22.155 -18.99
13618 4 26.9025 -23.7375 -17.4075
13619 3 28.485 -22.155 -15.825
13620 3 26.9025 -23.7375 -14.2425
13621 4 28.485 -22.155 -12.66
13622 1 26.9025 -23.7375 -11.0775
13623 4 28.485 -22.155 -9.495
13624 1 26.9025 -23.7375 -7.9125
13625 4 28.485 -22.155 -6.33
13626 4 26.9025 -23.7375 -4.7475
13627 2 28.485 -22.155 -3.165
13628 3 26.9025 -23.7375 -1.5825
13629 3 28.485 -22.155 0.0
13630 3 26.9025 -23.7375 1.5825
13631 2 28.485 -22.155 3.165
13632 1 26.9025 -23.7375 4.7475
13633 2 28.485 -22.155 6.33
13634 2 26.9025 -23.7375 7.9125
13635 4 28.485 -22.155 9.495
13636 4 26.9025 -23.7375 11.0775
13637 1 28.485 -22.155 12.66
13638 3 26.9025 -23.7375 14.2425
13639 1 28.485 -22.155 15.825
13640 4 26.9025 -23.7375 17.4075
13641 3 28.485 -22.155 18.99
13642 1 26.9025 -23.7375 20.5725
13643 2 28.485 -22.155 22.155
13644 4 26.9025 -23.7375 23.7375
13645 3 28.485 -22.155 25.32
13646 1 26.9025 -23.7375 26.9025
13647 1 28.485 -22.155 28.485
13648 4 26.9025 -23.7375 30.0675
13649 1 28.485 -22.155 31.65
13650 1 26.9025 -20.5725 -30.0675
13651 4 28.485 -18.99 -28.485
13652 4 26.9025 -20.5725 -26.9025
13653 2 28.485 -18.99 -25.32
13654 4 26.9025 -20.5725 -23.7375
13655 1 26.9025 -20.5725 -20.5725
13656 3 28.485 -18.99 -18.99
13657 3 26.9025 -20.5725 -17.4075
13658 2 28.485 -18.99 -15.825
13659 2 26.9025 -20.5725 -14.2425
13660 4 28.485 -18.99 -12.66
13661 4 26.9025 -20.5725 -11.0775
13662 2 28.485 -18.99 -9.495
13663 4 26.9025 -20.5725 -7.9125
13664 2 28.485 -18.99 -6.33
13665 2 26.9025 -20.5725 -4.7475
13666 2 28.485 -18.99 -3.165
13667 1 26.9025 -20.5725 -1.5825
13668 4 28.485 -18.99 0.0
13669 1 26.9025 -20.5725 1.5825
13670 4 28.485 -18.99 3.165
13671 4 26.9025 -20.5725 4.7475
13672 2 28.485 -18.99 6.33
13673 3 26.9025 -20.5725 7.9125
13674 3 28.485 -18.99 9.495
13675 1 26.9025 -20.5725 11.0775
13676 4 26.9025 -20.5725 14.2425
13677 4 28.485 -18.99 15.825
13678 3 26.9025 -20.5725 17.4075
13679 1 28.485 -18.99 18.99
13680 2 26.9025 -20.5725 20.5725
13681 1 28.485 -18.99 22.155
13682 3 26.9025 -20.5725 23.7375
13683 2 28.485 -18.99 25.32
13684 3 26.9025 -20.5725 26.9025
13685 1 28.485 -18.99 28.485
13686 1 26.9025 -20.5725 30.0675
13687 4 26.9025 -17.4075 -30.0675
13688 3 26.9025 -17.4075 -26.9025
13689 1 28.485 -15.825 -25.32
13690 3 26.9025 -17.4075 -23.7375
13691 2 28.485 -15.825 -22.155
13692 3 26.9025 -17.4075 -20.5725
13693 2 28.485 -15.825 -18.99
13694 2 26.9025 -17.4075 -17.4075
13695 1 28.485 -15.825 -15.825
13696 4 26.9025 -17.4075 -14.2425
13697 1 28.485 -15.825 -12.66
13698 4 26.9025 -17.4075 -11.0775
13699 2 28.485 -15.825 -9.495
13700 4 26.9025 -17.4075 -7.9125
13701 4 28.485 -15.825 -6.33
13702 2 26.9025 -17.4075 -4.7475
13703 3 28.485 -15.825 -3.165
13704 2 26.9025 -17.4075 -1.5825
13705 3 28.485 -15.825 0.0
13706 4 26.9025 -17.4075 1.5825
13707 1 28.485 -15.825 3.165
13708 1 26.9025 -17.4075 4.7475
13709 4 28.485 -15.825 6.33
13710 4 26.9025 -17.4075 7.9125
13711 4 28.485 -15.825 9.495
13712 3 26.9025 -17.4075 11.0775
13713 3 28.485 -15.825 12.66
13714 1 26.9025 -17.4075 14.2425
13715 1 28.485 -15.825 15.825
13716 1 26.9025 -17.4075 17.4075
13717 4 28.485 -15.825 18.99
13718 1 26.9025 -17.4075 20.5725
13719 2 28.485 -15.825 22.155
13720 3 26.9025 -17.4075 23.7375
13721 2 28.485 -15.825 25.32
13722 3 26.9025 -17.4075 26.9025
13723 4 28.485 -15.825 28.485
13724 4 26.9025 -17.4075 30.0675
13725 3 26.9025 -14.2425 -30.0675
13726 1 28.485 -12.66 -28.485
13727 2 26.9025 -14.2425 -26.9025
13728 4 28.485 -12.66 -25.32
13729 3 26.9025 -14.2425 -23.7375
13730 4 28.485 -12.66 -22.155
13731 1 26.9025 -14.2425 -20.5725
13732 3 28.485 -12.66 -18.99
13733 4 26.9025 -14.2425 -17.4075
13734 4 28.485 -12.66 -15.825
13735 1 26.9025 -14.2425 -14.2425
13736 4 28.485 -12.66 -12.66
13737 2 26.9025 -14.2425 -11.0775
13738 4 28.485 -12.66 -9.495
13739 1 26.9025 -14.2425 -7.9125
13740 3 28.485 -12.66 -6.33
13741 3 26.9025 -14.2425 -4.7475
13742 3 28.485 -12.66 -3.165
13743 3 26.9025 -14.2425 -1.5825
13744 2 28.485 -12.66 0.0
13745 4 26.9025 -14.2425 1.5825
13746 4 28.485 -12.66 3.165
13747 3 26.9025 -14.2425 4.7475
13748 3 28.485 -12.66 6.33
13749 4 26.9025 -14.2425 7.9125
13750 3 28.485 -12.66 9.495
13751 2 26.9025 -14.2425 11.0775
13752 1 28.485 -12.66 12.66
13753 3 26.9025 -14.2425 14.2425
13754 2 28.485 -12.66 15.825
13755 2 26.9025 -14.2425 17.4075
13756 2 28.485 -12.66 18.99
13757 4 26.9025 -14.2425 20.5725
13758 3 28.485 -12.66 22.155
13759 3 26.9025 -14.2425 23.7375
13760 3 28.485 -12.66 25.32
13761 3 26.9025 -14.2425 26.9025
13762 4 28.485 -12.66 28.485
13763 4 26.9025 -14.2425 30.0675
13764 2 28.485 -12.66 31.65
13765 1 26.9025 -11.0775 -30.0675
13766 3 28.485 -9.495 -28.485
13767 3 26.9025 -11.0775 -23.7375
13768 2 28.485 -9.495 -22.155
13769 2 26.9025 -11.0775 -20.5725
13770 3 28.485 -9.495 -18.99
13771 2 26.9025 -11.0775 -17.4075
13772 4 28.485 -9.495 -15.825
13773 3 26.9025 -11.0775 -11.0775
13774 2 28.485 -9.495 -9.495
13775 1 26.9025 -11.0775 -7.9125
13776 2 28.485 -9.495 -6.33
13777 4 26.9025 -11.0775 -4.7475
13778 2 28.485 -9.495 -3.165
13779 2 26.9025 -11.0775 -1.5825
13780 2 28.485 -9.495 0.0
13781 4 26.9025 -11.0775 1.5825
13782 4 28.485 -9.495 3.165
13783 2 26.9025 -11.0775 4.7475
13784 3 28.485 -9.495 6.33
13785 3 26.9025 -11.0775 7.9125
13786 2 28.485 -9.495 9.495
13787 4 26.9025 -11.0775 11.0775
13788 4 28.485 -9.495 12.66
13789 4 26.9025 -11.0775 14.2425
13790 2 26.9025 -11.0775 17.4075
13791 1 28.485 -9.495 18.99
13792 2 26.9025 -11.0775 20.5725
13793 2 28.485 -9.495 22.155
13794 3 26.9025 -11.0775 23.7375
13795 1 28.485 -9.495 25.32
13796 3 26.9025 -11.0775 26.9025
13797 4 28.485 -9.495 28.485
13798 1 26.9025 -11.0775 30.0675
13799 3 28.485 -9.495 31.65
13800 4 28.485 -6.33 -28.485
13801 2 26.9025 -7.9125 -26.9025
13802 4 28.485 -6.33 -25.32
13803 1 28.485 -6.33 -22.155
13804 4 28.485 -6.33 -18.99
13805 1 26.9025 -7.9125 -17.4075
13806 3 28.485 -6.33 -15.825
13807 1 26.9025 -7.9125 -14.2425
13808 1 28.485 -6.33 -12.66
13809 3 28.485 -6.33 -9.495
13810 1 26.9025 -7.9125 -7.9125
13811 1 28.485 -6.33 -6.33
13812 2 26.9025 -7.9125 -4.7475
13813 1 28.485 -6.33 -3.165
13814 4 26.9025 -7.9125 -1.5825
13815 3 28.485 -6.33 0.0
13816 2 28.485 -6.33 3.165
13817 4 26.9025 -7.9125 4.7475
13818 3 28.485 -6.33 6.33
13819 1 26.9025 -7.9125 7.9125
13820 1 28.485 -6.33 9.495
13821 1 26.9025 -7.9125 11.0775
13822 4 28.485 -6.33 12.66
13823 1 26.9025 -7.9125 14.2425
13824 2 28.485 -6.33 15.825
13825 1 26.9025 -7.9125 17.4075
13826 1 28.485 -6.33 18.99
13827 1 26.9025 -7.9125 20.5725
13828 2 28.485 -6.33 22.155
13829 4 26.9025 -7.9125 23.7375
13830 3 26.9025 -7.9125 26.9025
13831 2 28.485 -6.33 28.485
13832 1 26.9025 -7.9125 30.0675
13833 1 28.485 -6.33 31.65
13834 2 26.9025 -4.7475 -30.0675
13835 3 28.485 -3.165 -28.485
13836 3 26.9025 -4.7475 -26.9025
13837 4 28.485 -3.165 -25.32
13838 3 26.9025 -4.7475 -23.7375
13839 4 28.485 -3.165 -22.155
13840 3 26.9025 -4.7475 -20.5725
13841 3 28.485 -3.165 -18.99
13842 4 26.9025 -4.7475 -17.4075
13843 1 28.485 -3.165 -15.825
13844 4 26.9025 -4.7475 -14.2425
13845 4 28.485 -3.165 -12.66
13846 2 26.9025 -4.7475 -11.0775
13847 2 28.485 -3.165 -9.495
13848 2 26.9025 -4.7475 -7.9125
13849 1 28.485 -3.165 -6.33
13850 3 26.9025 -4.7475 -4.7475
13851 4 28.485 -3.165 -3.165
13852 4 26.9025 -4.7475 -1.5825
13853 2 28.485 -3.165 0.0
13854 2 26.9025 -4.7475 1.5825
13855 3 28.485 -3.165 3.165
13856 1 26.9025 -4.7475 4.7475
13857 2 28.485 -3.165 6.33
13858 2 26.9025 -4.7475 7.9125
13859 2 26.9025 -4.7475 11.0775
13860 2 28.485 -3.165 12.66
13861 4 26.9025 -4.7475 14.2425
13862 1 28.485 -3.165 15.825
13863 3 26.9025 -4.7475 17.4075
13864 4 28.485 -3.165 18.99
13865 2 26.9025 -4.7475 20.5725
13866 4 28.485 -3.165 22.155
13867 1 26.9025 -4.7475 23.7375
13868 1 28.485 -3.165 25.32
13869 4 26.9025 -4.7475 26.9025
13870 3 28.485 -3.165 28.485
13871 3 26.9025 -4.7475 30.0675
13872 2 28.485 -3.165 31.65
13873 3 26.9025 -1.5825 -30.0675
13874 1 26.9025 -1.5825 -26.9025
13875 1 28.485 0.0 -25.32
13876 2 26.9025 -1.5825 -23.7375
13877 3 28.485 0.0 -22.155
13878 2 26.9025 -1.5825 -20.5725
13879 2 28.485 0.0 -18.99
13880 4 26.9025 -1.5825 -17.4075
13881 2 28.485 0.0 -15.825
13882 1 26.9025 -1.5825 -14.2425
13883 2 28.485 0.0 -12.66
13884 2 26.9025 -1.5825 -11.0775
13885 3 28.485 0.0 -9.495
13886 2 26.9025 -1.5825 -7.9125
13887 4 26.9025 -1.5825 -4.7475
13888 3 28.485 0.0 -3.165
13889 1 26.9025 -1.5825 -1.5825
13890 3 28.485 0.0 0.0
13891 1 26.9025 -1.5825 1.5825
13892 1 28.485 0.0 3.165
13893 2 26.9025 -1.5825 4.7475
13894 1 28.485 0.0 6.33
13895 1 26.9025 -1.5825 7.9125
13896 1 26.9025 -1.5825 11.0775
13897 4 28.485 0.0 12.66
13898 2 26.9025 -1.5825 14.2425
13899 2 28.485 0.0 15.825
13900 4 26.9025 -1.5825 17.4075
13901 1 28.485 0.0 18.99
13902 1 26.9025 -1.5825 20.5725
13903 4 28.485 0.0 22.155
13904 1 26.9025 -1.5825 23.7375
13905 4 28.485 0.0 25.32
13906 1 26.9025 -1.5825 26.9025
13907 2 28.485 0.0 28.485
13908 2 26.9025 -1.5825 30.0675
13909 3 28.485 0.0 31.65
13910 3 26.9025 1.5825 -30.0675
13911 1 28.485 3.165 -28.485
13912 4 26.9025 1.5825 -26.9025
13913 4 28.485 3.165 -25.32
13914 4 26.9025 1.5825 -23.7375
13915 1 28.485 3.165 -22.155
13916 3 28.485 3.165 -18.99
13917 1 26.9025 1.5825 -17.4075
13918 4 28.485 3.165 -15.825
13919 2 26.9025 1.5825 -14.2425
13920 1 28.485 3.165 -12.66
13921 1 26.9025 1.5825 -11.0775
13922 1 28.485 3.165 -9.495
13923 1 26.9025 1.5825 -7.9125
13924 3 28.485 3.165 -6.33
13925 4 26.9025 1.5825 -4.7475
13926 3 26.9025 1.5825 -1.5825
13927 1 28.485 3.165 0.0
13928 1 26.9025 1.5825 1.5825
13929 4 28.485 3.165 3.165
13930 4 26.9025 1.5825 4.7475
13931 3 26.9025 1.5825 7.9125
13932 4 28.485 3.165 9.495
13933 3 26.9025 1.5825 11.0775
13934 1 28.485 3.165 12.66
13935 1 26.9025 1.5825 14.2425
13936 2 28.485 3.165 15.825
13937 3 26.9025 1.5825 17.4075
13938 2 28.485 3.165 18.99
13939 4 26.9025 1.5825 20.5725
13940 1 28.485 3.165 22.155
13941 4 26.9025 1.5825 23.7375
13942 3 28.485 3.165 25.32
13943 3 26.9025 1.5825 26.9025
13944 3 28.485 3.165 28.485
13945 1 26.9025 1.5825 30.0675
13946 3 28.485 3.165 31.65
13947 3 28.485 6.33 -28.485
13948 4 26.9025 4.7475 -26.9025
13949 4 28.485 6.33 -25.32
13950 2 26.9025 4.7475 -23.7375
13951 1 28.485 6.33 -22.155
13952 2 26.9025 4.7475 -20.5725
13953 2 28.485 6.33 -18.99
13954 1 26.9025 4.7475 -17.4075
13955 1 28.485 6.33 -15.825
13956 2 26.9025 4.7475 -14.2425
13957 2 28.485 6.33 -12.66
13958 2 26.9025 4.7475 -11.0775
13959 1 28.485 6.33 -9.495
13960 1 26.9025 4.7475 -7.9125
13961 4 28.485 6.33 -6.33
13962 2 26.9025 4.7475 -4.7475
13963 3 28.485 6.33 -3.165
13964 4 26.9025 4.7475 -1.5825
13965 1 28.485 6.33 0.0
13966 4 26.9025 4.7475 1.5825
13967 2 28.485 6.33 3.165
13968 1 26.9025 4.7475 4.7475
13969 1 28.485 6.33 6.33
13970 4 26.9025 4.7475 7.9125
13971 2 26.9025 4.7475 11.0775
13972 4 28.485 6.33 12.66
13973 2 26.9025 4.7475 14.2425
13974 2 28.485 6.33 15.825
13975 4 26.9025 4.7475 17.4075
13976 1 28.485 6.33 18.99
13977 1 26.9025 4.7475 20.5725
13978 1 28.485 6.33 22.155
13979 1 26.9025 4.7475 23.7375
13980 4 28.485 6.33 25.32
13981 2 26.9025 4.7475 26.9025
13982 3 28.485 6.33 28.485
13983 4 26.9025 4.7475 30.0675
13984 1 26.9025 7.9125 -30.0675
13985 2 28.485 9.495 -28.485
13986 3 26.9025 7.9125 -26.9025
13987 1 28.485 9.495 -25.32
13988 1 26.9025 7.9125 -23.7375
13989 4 28.485 9.495 -22.155
13990 3 26.9025 7.9125 -20.5725
13991 2 28.485 9.495 -18.99
13992 4 26.9025 7.9125 -17.4075
13993 1 28.485 9.495 -15.825
13994 1 26.9025 7.9125 -14.2425
13995 3 26.9025 7.9125 -11.0775
13996 3 28.485 9.495 -9.495
13997 3 26.9025 7.9125 -7.9125
13998 2 28.485 9.495 -6.33
13999 4 26.9025 7.9125 -4.7475
14000 4 28.485 9.495 -3.165
14001 1 26.9025 7.9125 -1.5825
14002 1 28.485 9.495 0.0
14003 3 26.9025 7.9125 1.5825
14004 1 28.485 9.495 3.165
14005 4 26.9025 7.9125 4.7475
14006 3 28.485 9.495 6.33
14007 4 26.9025 7.9125 7.9125
14008 1 28.485 9.495 9.495
14009 2 26.9025 7.9125 11.0775
14010 4 28.485 9.495 12.66
14011 3 26.9025 7.9125 14.2425
14012 3 28.485 9.495 15.825
14013 1 26.9025 7.9125 17.4075
14014 4 28.485 9.495 18.99
14015 3 26.9025 7.9125 20.5725
14016 2 28.485 9.495 22.155
14017 2 26.9025 7.9125 23.7375
14018 4 28.485 9.495 25.32
14019 2 26.9025 7.9125 26.9025
14020 4 26.9025 7.9125 30.0675
14021 1 28.485 9.495 31.65
14022 2 26.9025 11.0775 -30.0675
14023 3 28.485 12.66 -28.485
14024 3 26.9025 11.0775 -26.9025
14025 4 26.9025 11.0775 -23.7375
14026 3 28.485 12.66 -22.155
14027 2 26.9025 11.0775 -20.5725
14028 2 28.485 12.66 -18.99
14029 2 26.9025 11.0775 -17.4075
14030 1 26.9025 11.0775 -14.2425
14031 4 28.485 12.66 -12.66
14032 3 26.9025 11.0775 -11.0775
14033 4 28.485 12.66 -9.495
14034 1 26.9025 11.0775 -7.9125
14035 3 28.485 12.66 -6.33
14036 1 26.9025 11.0775 -4.7475
14037 3 28.485 12.66 -3.165
14038 1 26.9025 11.0775 -1.5825
14039 2 28.485 12.66 0.0
14040 4 26.9025 11.0775 1.5825
14041 2 28.485 12.66 3.165
14042 1 26.9025 11.0775 4.7475
14043 1 28.485 12.66 6.33
14044 2 26.9025 11.0775 7.9125
14045 3 28.485 12.66 9.495
14046 4 26.9025 11.0775 11.0775
14047 4 28.485 12.66 12.66
14048 3 26.9025 11.0775 14.2425
14049 1 28.485 12.66 15.825
14050 2 26.9025 11.0775 17.4075
14051 2 28.485 12.66 18.99
14052 1 26.9025 11.0775 20.5725
14053 2 26.9025 11.0775 23.7375
14054 4 28.485 12.66 25.32
14055 1 28.485 12.66 28.485
14056 1 26.9025 11.0775 30.0675
14057 2 28.485 12.66 31.65
14058 3 26.9025 14.2425 -30.0675
14059 3 28.485 15.825 -28.485
14060 2 26.9025 14.2425 -26.9025
14061 2 26.9025 14.2425 -23.7375
14062 2 28.485 15.825 -22.155
14063 2 26.9025 14.2425 -20.5725
14064 1 28.485 15.825 -18.99
14065 3 26.9025 14.2425 -17.4075
14066 2 28.485 15.825 -15.825
14067 3 26.9025 14.2425 -14.2425
14068 1 28.485 15.825 -12.66
14069 3 26.9025 14.2425 -11.0775
14070 3 28.485 15.825 -9.495
14071 1 26.9025 14.2425 -7.9125
14072 2 28.485 15.825 -6.33
14073 2 26.9025 14.2425 -4.7475
14074 1 28.485 15.825 -3.165
14075 4 26.9025 14.2425 -1.5825
14076 4 28.485 15.825 0.0
14077 4 26.9025 14.2425 1.5825
14078 4 28.485 15.825 3.165
14079 4 26.9025 14.2425 4.7475
14080 4 28.485 15.825 6.33
14081 1 26.9025 14.2425 7.9125
14082 4 28.485 15.825 9.495
14083 3 26.9025 14.2425 11.0775
14084 2 26.9025 14.2425 14.2425
14085 2 28.485 15.825 15.825
14086 2 26.9025 14.2425 17.4075
14087 2 28.485 15.825 18.99
14088 3 26.9025 14.2425 20.5725
14089 1 28.485 15.825 22.155
14090 1 26.9025 14.2425 23.7375
14091 4 28.485 15.825 25.32
14092 3 26.9025 14.2425 26.9025
14093 2 28.485 15.825 28.485
14094 2 26.9025 14.2425 30.0675
14095 4 28.485 15.825 31.65
14096 2 26.9025 17.4075 -30.0675
14097 2 28.485 18.99 -28.485
14098 3 26.9025 17.4075 -26.9025
14099 3 28.485 18.99 -25.32
14100 3 26.9025 17.4075 -23.7375
14101 3 28.485 18.99 -22.155
14102 1 26.9025 17.4075 -20.5725
14103 1 28.485 18.99 -18.99
14104 3 26.9025 17.4075 -17.4075
14105 1 28.485 18.99 -15.825
14106 3 26.9025 17.4075 -14.2425
14107 2 28.485 18.99 -12.66
14108 2 26.9025 17.4075 -11.0775
14109 2 26.9025 17.4075 -7.9125
14110 2 28.485 18.99 -6.33
14111 4 26.9025 17.4075 -4.7475
14112 4 28.485 18.99 -3.165
14113 3 26.9025 17.4075 -1.5825
14114 4 28.485 18.99 0.0
14115 1 26.9025 17.4075 1.5825
14116 2 28.485 18.99 3.165
14117 4 26.9025 17.4075 4.7475
14118 3 28.485 18.99 6.33
14119 1 26.9025 17.4075 7.9125
14120 4 28.485 18.99 9.495
14121 3 28.485 18.99 12.66
14122 1 26.9025 17.4075 14.2425
14123 2 28.485 18.99 15.825
14124 1 26.9025 17.4075 17.4075
14125 4 28.485 18.99 18.99
14126 3 26.9025 17.4075 20.5725
14127 2 28.485 18.99 22.155
14128 1 26.9025 17.4075 23.7375
14129 4 28.485 18.99 25.32
14130 3 28.485 18.99 28.485
14131 3 26.9025 17.4075 30.0675
14132 1 28.485 18.99 31.65
14133 4 26.9025 20.5725 -30.0675
14134 4 28.485 22.155 -28.485
14135 3 26.9025 20.5725 -26.9025
14136 2 28.485 22.155 -25.32
14137 1 26.9025 20.5725 -23.7375
14138 2 28.485 22.155 -22.155
14139 3 26.9025 20.5725 -20.5725
14140 1 28.485 22.155 -18.99
14141 4 26.9025 20.5725 -17.4075
14142 1 26.9025 20.5725 -14.2425
14143 3 28.485 22.155 -12.66
14144 4 26.9025 20.5725 -11.0775
14145 4 28.485 22.155 -9.495
14146 4 26.9025 20.5725 -7.9125
14147 2 28.485 22.155 -6.33
14148 1 26.9025 20.5725 -4.7475
14149 2 28.485 22.155 -3.165
14150 1 26.9025 20.5725 -1.5825
14151 3 28.485 22.155 0.0
14152 4 26.9025 20.5725 1.5825
14153 2 28.485 22.155 3.165
14154 3 26.9025 20.5725 4.7475
14155 1 28.485 22.155 6.33
14156 1 26.9025 20.5725 7.9125
14157 2 26.9025 20.5725 11.0775
14158 4 28.485 22.155 12.66
14159 4 26.9025 20.5725 14.2425
14160 3 28.485 22.155 15.825
14161 3 26.9025 20.5725 17.4075
14162 1 26.9025 20.5725 20.5725
14163 3 28.485 22.155 22.155
14164 4 26.9025 20.5725 23.7375
14165 2 28.485 22.155 25.32
14166 2 26.9025 20.5725 26.9025
14167 2 28.485 22.155 28.485
14168 1 26.9025 20.5725 30.0675
14169 1 28.485 22.155 31.65
14170 4 26.9025 23.7375 -30.0675
14171 1 28.485 25.32 -28.485
14172 3 26.9025 23.7375 -26.9025
14173 4 28.485 25.32 -25.32
14174 1 26.9025 23.7375 -23.7375
14175 1 28.485 25.32 -22.155
14176 2 26.9025 23.7375 -20.5725
14177 3 28.485 25.32 -18.99
14178 3 28.485 25.32 -15.825
14179 1 26.9025 23.7375 -14.2425
14180 2 28.485 25.32 -12.66
14181 3 26.9025 23.7375 -11.0775
14182 3 28.485 25.32 -9.495
14183 1 26.9025 23.7375 -7.9125
14184 2 28.485 25.32 -6.33
14185 1 28.485 25.32 -3.165
14186 1 26.9025 23.7375 -1.5825
14187 1 28.485 25.32 0.0
14188 2 26.9025 23.7375 1.5825
14189 1 28.485 25.32 3.165
14190 1 26.9025 23.7375 4.7475
14191 1 28.485 25.32 6.33
14192 1 26.9025 23.7375 7.9125
14193 4 28.485 25.32 9.495
14194 3 26.9025 23.7375 11.0775
14195 4 28.485 25.32 12.66
14196 4 26.9025 23.7375 14.2425
14197 4 28.485 25.32 15.825
14198 3 26.9025 23.7375 17.4075
14199 2 26.9025 23.7375 20.5725
14200 2 28.485 25.32 22.155
14201 2 26.9025 23.7375 23.7375
14202 4 28.485 25.32 25.32
14203 3 26.9025 23.7375 26.9025
14204 4 28.485 25.32 28.485
14205 2 26.9025 23.7375 30.0675
14206 1 28.485 25.32 31.65
14207 4 26.9025 26.9025 -30.0675
14208 2 28.485 28.485 -28.485
14209 3 26.9025 26.9025 -26.9025
14210 1 28.485 28.485 -25.32
14211 2 26.9025 26.9025 -23.7375
14212 3 28.485 28.485 -22.155
14213 4 26.9025 26.9025 -20.5725
14214 2 28.485 28.485 -18.99
14215 4 26.9025 26.9025 -17.4075
14216 4 28.485 28.485 -15.825
14217 4 26.9025 26.9025 -14.2425
14218 3 28.485 28.485 -12.66
14219 1 26.9025 26.9025 -11.0775
14220 3 28.485 28.485 -9.495
14221 4 26.9025 26.9025 -7.9125
14222 4 28.485 28.485 -6.33
14223 3 26.9025 26.9025 -4.7475
14224 4 28.485 28.485 -3.165
14225 2 26.9025 26.9025 -1.5825
14226 4 28.485 28.485 0.0
14227 4 26.9025 26.9025 1.5825
14228 1 28.485 28.485 3.165
14229 2 26.9025 26.9025 4.7475
14230 3 28.485 28.485 6.33
14231 4 26.9025 26.9025 7.9125
14232 2 28.485 28.485 9.495
14233 3 26.9025 26.9025 11.0775
14234 2 28.485 28.485 12.66
14235 4 26.9025 26.9025 14.2425
14236 1 28.485 28.485 15.825
14237 3 26.9025 26.9025 17.4075
14238 4 28.485 28.485 18.99
14239 1 26.9025 26.9025 20.5725
14240 1 28.485 28.485 22.155
14241 2 26.9025 26.9025 23.7375
14242 1 28.485 28.485 25.32
14243 2 26.9025 26.9025 26.9025
14244 3 28.485 28.485 28.485
14245 3 26.9025 26.9025 30.0675
14246 2 28.485 28.485 31.65
14247 4 26.9025 30.0675 -30.0675
14248 2 28.485 31.65 -28.485
14249 2 26.9025 30.0675 -26.9025
14250 2 26.9025 30.0675 -23.7375
14251 3 28.485 31.65 -22.155
14252 3 26.9025 30.0675 -20.5725
14253 2 28.485 31.65 -18.99
14254 1 26.9025 30.0675 -17.4075
14255 1 28.485 31.65 -15.825
14256 3 26.9025 30.0675 -14.2425
14257 3 26.9025 30.0675 -11.0775
14258 3 28.485 31.65 -9.495
14259 2 26.9025 30.0675 -7.9125
14260 1 28.485 31.65 -6.33
14261 3 26.9025 30.0675 -4.7475
14262 3 28.485 31.65 -3.165
14263 3 26.9025 30.0675 -1.5825
14264 4 28.485 31.65 0.0
14265 4 26.9025 30.0675 1.5825
14266 4 28.485 31.65 3.165
14267 4 26.9025 30.0675 4.7475
14268 2 28.485 31.65 6.33
14269 1 26.9025 30.0675 7.9125
14270 3 28.485 31.65 9.495
14271 3 26.9025 30.0675 11.0775
14272 4 28.485 31.65 12.66
14273 3 26.9025 30.0675 14.2425
14274 1 26.9025 30.0675 17.4075
14275 1 28.485 31.65 18.99
14276 1 26.9025 30.0675 20.5725
14277 4 28.485 31.65 22.155
14278 1 26.9025 30.0675 23.7375
14279 4 28.485 31.65 25.32
14280 1 28.485 31.65 28.485
14281 1 26.9025 30.0675 30.0675
14282 3 28.485 31.65 31.65
14283 1 30.0675 -30.0675 -30.0675
14284 2 31.65 -28.485 -28.485
14285 2 30.0675 -30.0675 -26.9025
14286 2 31.65 -28.485 -25.32
14287 4 30.0675 -30.0675 -23.7375
14288 4 31.65 -28.485 -22.155
14289 1 30.0675 -30.0675 -20.5725
14290 2 31.65 -28.485 -18.99
14291 4 30.0675 -30.0675 -17.4075
14292 2 31.65 -28.485 -15.825
14293 2 30.0675 -30.0675 -14.2425
14294 1 31.65 -28.485 -12.66
14295 4 30.0675 -30.0675 -11.0775
14296 1 31.65 -28.485 -9.495
14297 1 30.0675 -30.0675 -7.9125
14298 3 31.65 -28.485 -6.33
14299 1 30.0675 -30.0675 -4.7475
14300 4 31.65 -28.485 -3.165
14301 3 30.0675 -30.0675 -1.5825
14302 2 31.65 -28.485 0.0
14303 4 30.0675 -30.0675 1.5825
14304 4 31.65 -28.485 3.165
14305 4 30.0675 -30.0675 4.7475
14306 1 31.65 -28.485 6.33
14307 3 30.0675 -30.0675 7.9125
14308 2 31.65 -28.485 9.495
14309 4 31.65 -28.485 12.66
14310 1 30.0675 -30.0675 14.2425
14311 3 31.65 -28.485 15.825
14312 3 30.0675 -30.0675 17.4075
14313 2 30.0675 -30.0675 20.5725
14314 3 31.65 -28.485 22.155
14315 4 30.0675 -30.0675 23.7375
14316 3 31.65 -28.485 25.32
14317 2 30.0675 -30.0675 26.9025
14318 3 31.65 -28.485 28.485
14319 4 30.0675 -30.0675 30.0675
14320 1 31.65 -28.485 31.65
14321 3 30.0675 -26.9025 -30.0675
14322 3 31.65 -25.32 -28.485
14323 4 30.0675 -26.9025 -26.9025
14324 3 31.65 -25.32 -25.32
14325 1 30.0675 -26.9025 -23.7375
14326 4 31.65 -25.32 -22.155
14327 2 31.65 -25.32 -18.99
14328 2 30.0675 -26.9025 -17.4075
14329 1 31.65 -25.32 -15.825
14330 4 30.0675 -26.9025 -14.2425
14331 2 31.65 -25.32 -12.66
14332 3 30.0675 -26.9025 -11.0775
14333 4 31.65 -25.32 -9.495
14334 2 30.0675 -26.9025 -7.9125
14335 1 31.65 -25.32 -6.33
14336 2 30.0675 -26.9025 -4.7475
14337 1 31.65 -25.32 -3.165
14338 2 30.0675 -26.9025 -1.5825
14339 3 31.65 -25.32 0.0
14340 2 30.0675 -26.9025 1.5825
14341 3 31.65 -25.32 3.165
14342 2 30.0675 -26.9025 4.7475
14343 3 31.65 -25.32 6.33
14344 2 30.0675 -26.9025 7.9125
14345 3 31.65 -25.32 9.495
14346 4 30.0675 -26.9025 11.0775
14347 2 31.65 -25.32 12.66
14348 2 30.0675 -26.9025 14.2425
14349 4 31.65 -25.32 15.825
14350 3 31.65 -25.32 18.99
14351 2 30.0675 -26.9025 20.5725
14352 4 31.65 -25.32 22.155
14353 4 30.0675 -26.9025 23.7375
14354 3 31.65 -25.32 25.32
14355 2 30.0675 -26.9025 26.9025
14356 1 31.65 -25.32 28.485
14357 1 30.0675 -26.9025 30.0675
14358 3 31.65 -25.32 31.65
14359 1 30.0675 -23.7375 -30.0675
14360 3 31.65 -22.155 -28.485
14361 2 30.0675 -23.7375 -26.9025
14362 1 31.65 -22.155 -25.32
14363 1 30.0675 -23.7375 -23.7375
14364 4 31.65 -22.155 -22.155
14365 1 30.0675 -23.7375 -20.5725
14366 4 31.65 -22.155 -18.99
14367 1 30.0675 -23.7375 -17.4075
14368 4 31.65 -22.155 -15.825
14369 3 30.0675 -23.7375 -14.2425
14370 1 31.65 -22.155 -12.66
14371 1 30.0675 -23.7375 -11.0775
14372 1 31.65 -22.155 -9.495
14373 2 30.0675 -23.7375 -7.9125
14374 2 31.65 -22.155 -6.33
14375 1 30.0675 -23.7375 -4.7475
14376 3 31.65 -22.155 -3.165
14377 3 30.0675 -23.7375 -1.5825
14378 3 31.65 -22.155 0.0
14379 3 30.0675 -23.7375 1.5825
14380 1 31.65 -22.155 3.165
14381 1 31.65 -22.155 6.33
14382 2 30.0675 -23.7375 7.9125
14383 3 31.65 -22.155 9.495
14384 1 30.0675 -23.7375 11.0775
14385 3 31.65 -22.155 12.66
14386 2 30.0675 -23.7375 14.2425
14387 3 31.65 -22.155 15.825
14388 2 30.0675 -23.7375 17.4075
14389 1 31.65 -22.155 18.99
14390 3 30.0675 -23.7375 20.5725
14391 4 31.65 -22.155 22.155
14392 4 30.0675 -23.7375 23.7375
14393 1 31.65 -22.155 25.32
14394 2 30.0675 -23.7375 26.9025
14395 4 31.65 -22.155 28.485
14396 3 30.0675 -23.7375 30.0675
14397 3 31.65 -22.155 31.65
14398 2 30.0675 -20.5725 -30.0675
14399 3 31.65 -18.99 -28.485
14400 4 30.0675 -20.5725 -26.9025
14401 1 31.65 -18.99 -25.32
14402 2 30.0675 -20.5725 -23.7375
14403 1 31.65 -18.99 -22.155
14404 4 30.0675 -20.5725 -20.5725
14405 4 31.65 -18.99 -18.99
14406 3 30.0675 -20.5725 -17.4075
14407 1 31.65 -18.99 -15.825
14408 4 30.0675 -20.5725 -14.2425
14409 3 31.65 -18.99 -12.66
14410 1 30.0675 -20.5725 -11.0775
14411 3 31.65 -18.99 -9.495
14412 1 30.0675 -20.5725 -7.9125
14413 2 31.65 -18.99 -6.33
14414 2 30.0675 -20.5725 -4.7475
14415 4 31.65 -18.99 -3.165
14416 4 30.0675 -20.5725 -1.5825
14417 4 31.65 -18.99 0.0
14418 1 30.0675 -20.5725 1.5825
14419 1 30.0675 -20.5725 4.7475
14420 2 31.65 -18.99 6.33
14421 1 30.0675 -20.5725 7.9125
14422 2 31.65 -18.99 9.495
14423 2 30.0675 -20.5725 11.0775
14424 2 31.65 -18.99 12.66
14425 4 30.0675 -20.5725 14.2425
14426 2 31.65 -18.99 15.825
14427 4 30.0675 -20.5725 17.4075
14428 2 31.65 -18.99 18.99
14429 3 30.0675 -20.5725 20.5725
14430 1 31.65 -18.99 22.155
14431 2 30.0675 -20.5725 23.7375
14432 2 31.65 -18.99 25.32
14433 1 30.0675 -20.5725 26.9025
14434 4 31.65 -18.99 28.485
14435 4 30.0675 -20.5725 30.0675
14436 4 31.65 -18.99 31.65
14437 1 30.0675 -17.4075 -30.0675
14438 1 31.65 -15.825 -28.485
14439 2 30.0675 -17.4075 -26.9025
14440 2 31.65 -15.825 -25.32
14441 1 30.0675 -17.4075 -23.7375
14442 4 31.65 -15.825 -22.155
14443 4 30.0675 -17.4075 -20.5725
14444 2 31.65 -15.825 -18.99
14445 1 30.0675 -17.4075 -17.4075
14446 4 31.65 -15.825 -15.825
14447 2 30.0675 -17.4075 -14.2425
14448 4 31.65 -15.825 -12.66
14449 3 30.0675 -17.4075 -11.0775
14450 1 31.65 -15.825 -9.495
14451 4 30.0675 -17.4075 -7.9125
14452 3 31.65 -15.825 -6.33
14453 2 30.0675 -17.4075 -4.7475
14454 4 31.65 -15.825 -3.165
14455 2 30.0675 -17.4075 -1.5825
14456 1 31.65 -15.825 0.0
14457 4 30.0675 -17.4075 1.5825
14458 4 31.65 -15.825 3.165
14459 2 30.0675 -17.4075 4.7475
14460 4 31.65 -15.825 6.33
14461 4 30.0675 -17.4075 7.9125
14462 3 31.65 -15.825 9.495
14463 3 30.0675 -17.4075 11.0775
14464 2 31.65 -15.825 12.66
14465 3 30.0675 -17.4075 14.2425
14466 4 31.65 -15.825 15.825
14467 2 30.0675 -17.4075 17.4075
14468 4 31.65 -15.825 18.99
14469 2 30.0675 -17.4075 20.5725
14470 2 31.65 -15.825 22.155
14471 1 30.0675 -17.4075 23.7375
14472 3 31.65 -15.825 25.32
14473 2 30.0675 -17.4075 26.9025
14474 1 31.65 -15.825 28.485
14475 3 30.0675 -17.4075 30.0675
14476 2 31.65 -15.825 31.65
14477 2 30.0675 -14.2425 -30.0675
14478 2 31.65 -12.66 -28.485
14479 2 30.0675 -14.2425 -26.9025
14480 1 31.65 -12.66 -25.32
14481 4 30.0675 -14.2425 -23.7375
14482 3 31.65 -12.66 -22.155
14483 2 30.0675 -14.2425 -20.5725
14484 1 31.65 -12.66 -18.99
14485 4 30.0675 -14.2425 -17.4075
14486 1 31.65 -12.66 -15.825
14487 3 30.0675 -14.2425 -14.2425
14488 3 31.65 -12.66 -12.66
14489 4 30.0675 -14.2425 -11.0775
14490 2 31.65 -12.66 -9.495
14491 1 30.0675 -14.2425 -7.9125
14492 1 31.65 -12.66 -6.33
14493 2 30.0675 -14.2425 -4.7475
14494 4 31.65 -12.66 -3.165
14495 2 30.0675 -14.2425 -1.5825
14496 4 31.65 -12.66 0.0
14497 2 30.0675 -14.2425 1.5825
14498 2 31.65 -12.66 3.165
14499 1 30.0675 -14.2425 4.7475
14500 3 31.65 -12.66 6.33
14501 3 30.0675 -14.2425 7.9125
14502 4 31.65 -12.66 9.495
14503 3 30.0675 -14.2425 11.0775
14504 3 31.65 -12.66 12.66
14505 3 30.0675 -14.2425 14.2425
14506 2 31.65 -12.66 15.825
14507 2 30.0675 -14.2425 17.4075
14508 4 31.65 -12.66 18.99
14509 1 30.0675 -14.2425 20.5725
14510 4 31.65 -12.66 22.155
14511 2 30.0675 -14.2425 23.7375
14512 4 31.65 -12.66 25.32
14513 2 30.0675 -14.2425 26.9025
14514 2 31.65 -12.66 28.485
14515 1 30.0675 -14.2425 30.0675
14516 3 31.65 -12.66 31.65
14517 1 30.0675 -11.0775 -30.0675
14518 4 31.65 -9.495 -28.485
14519 1 30.0675 -11.0775 -26.9025
14520 2 31.65 -9.495 -25.32
14521 4 30.0675 -11.0775 -23.7375
14522 4 31.65 -9.495 -22.155
14523 3 30.0675 -11.0775 -20.5725
14524 3 31.65 -9.495 -18.99
14525 2 31.65 -9.495 -15.825
14526 4 30.0675 -11.0775 -14.2425
14527 4 31.65 -9.495 -12.66
14528 1 30.0675 -11.0775 -11.0775
14529 3 30.0675 -11.0775 -7.9125
14530 1 31.65 -9.495 -6.33
14531 2 30.0675 -11.0775 -4.7475
14532 4 31.65 -9.495 -3.165
14533 3 30.0675 -11.0775 -1.5825
14534 2 31.65 -9.495 0.0
14535 3 30.0675 -11.0775 1.5825
14536 1 31.65 -9.495 3.165
14537 3 30.0675 -11.0775 4.7475
14538 3 31.65 -9.495 6.33
14539 4 30.0675 -11.0775 7.9125
14540 4 31.65 -9.495 9.495
14541 2 30.0675 -11.0775 11.0775
14542 4 31.65 -9.495 12.66
14543 2 30.0675 -11.0775 14.2425
14544 1 31.65 -9.495 15.825
14545 2 30.0675 -11.0775 17.4075
14546 4 31.65 -9.495 18.99
14547 3 30.0675 -11.0775 20.5725
14548 1 31.65 -9.495 22.155
14549 3 30.0675 -11.0775 23.7375
14550 1 31.65 -9.495 25.32
14551 2 30.0675 -11.0775 26.9025
14552 1 31.65 -9.495 28.485
14553 4 30.0675 -11.0775 30.0675
14554 1 31.65 -9.495 31.65
14555 1 30.0675 -7.9125 -30.0675
14556 2 31.65 -6.33 -28.485
14557 2 30.0675 -7.9125 -26.9025
14558 4 31.65 -6.33 -25.32
14559 3 30.0675 -7.9125 -23.7375
14560 3 31.65 -6.33 -22.155
14561 4 30.0675 -7.9125 -20.5725
14562 2 31.65 -6.33 -18.99
14563 4 30.0675 -7.9125 -17.4075
14564 2 31.65 -6.33 -15.825
14565 2 31.65 -6.33 -12.66
14566 4 30.0675 -7.9125 -11.0775
14567 3 30.0675 -7.9125 -7.9125
14568 3 31.65 -6.33 -6.33
14569 4 30.0675 -7.9125 -4.7475
14570 1 31.65 -6.33 -3.165
14571 3 30.0675 -7.9125 -1.5825
14572 2 31.65 -6.33 0.0
14573 1 30.0675 -7.9125 1.5825
14574 2 31.65 -6.33 3.165
14575 4 30.0675 -7.9125 4.7475
14576 3 31.65 -6.33 6.33
14577 4 30.0675 -7.9125 7.9125
14578 2 31.65 -6.33 9.495
14579 3 30.0675 -7.9125 11.0775
14580 1 31.65 -6.33 12.66
14581 3 30.0675 -7.9125 14.2425
14582 3 31.65 -6.33 15.825
14583 1 30.0675 -7.9125 17.4075
14584 2 31.65 -6.33 18.99
14585 2 30.0675 -7.9125 20.5725
14586 4 31.65 -6.33 22.155
14587 3 30.0675 -7.9125 23.7375
14588 4 31.65 -6.33 25.32
14589 2 30.0675 -7.9125 26.9025
14590 2 31.65 -6.33 28.485
14591 4 30.0675 -7.9125 30.0675
14592 4 31.65 -6.33 31.65
14593 4 30.0675 -4.7475 -30.0675
14594 4 31.65 -3.165 -28.485
14595 4 30.0675 -4.7475 -26.9025
14596 2 31.65 -3.165 -25.32
14597 2 30.0675 -4.7475 -23.7375
14598 2 31.65 -3.165 -22.155
14599 4 30.0675 -4.7475 -20.5725
14600 2 31.65 -3.165 -18.99
14601 1 30.0675 -4.7475 -17.4075
14602 2 31.65 -3.165 -15.825
14603 4 30.0675 -4.7475 -14.2425
14604 4 31.65 -3.165 -12.66
14605 4 30.0675 -4.7475 -11.0775
14606 3 31.65 -3.165 -9.495
14607 3 30.0675 -4.7475 -7.9125
14608 4 31.65 -3.165 -6.33
14609 3 31.65 -3.165 -3.165
14610 3 30.0675 -4.7475 -1.5825
14611 2 31.65 -3.165 0.0
14612 4 30.0675 -4.7475 1.5825
14613 3 31.65 -3.165 3.165
14614 3 30.0675 -4.7475 4.7475
14615 4 31.65 -3.165 6.33
14616 1 30.0675 -4.7475 7.9125
14617 2 31.65 -3.165 9.495
14618 2 30.0675 -4.7475 11.0775
14619 3 31.65 -3.165 12.66
14620 3 30.0675 -4.7475 14.2425
14621 2 31.65 -3.165 15.825
14622 2 30.0675 -4.7475 17.4075
14623 1 31.65 -3.165 18.99
14624 3 30.0675 -4.7475 20.5725
14625 4 31.65 -3.165 22.155
14626 2 30.0675 -4.7475 23.7375
14627 2 31.65 -3.165 25.32
14628 2 30.0675 -4.7475 26.9025
14629 1 31.65 -3.165 28.485
14630 1 30.0675 -4.7475 30.0675
14631 1 31.65 -3.165 31.65
14632 2 30.0675 -1.5825 -30.0675
14633 3 31.65 0.0 -28.485
14634 1 30.0675 -1.5825 -26.9025
14635 4 31.65 0.0 -25.32
14636 2 30.0675 -1.5825 -23.7375
14637 2 31.65 0.0 -22.155
14638 4 30.0675 -1.5825 -20.5725
14639 4 31.65 0.0 -18.99
14640 2 30.0675 -1.5825 -17.4075
14641 4 31.65 0.0 -15.825
14642 3 30.0675 -1.5825 -14.2425
14643 4 31.65 0.0 -12.66
14644 3 30.0675 -1.5825 -11.0775
14645 3 31.65 0.0 -9.495
14646 3 30.0675 -1.5825 -7.9125
14647 3 31.65 0.0 -6.33
14648 1 30.0675 -1.5825 -4.7475
14649 3 31.65 0.0 -3.165
14650 2 30.0675 -1.5825 -1.5825
14651 2 31.65 0.0 0.0
14652 1 31.65 0.0 3.165
14653 3 30.0675 -1.5825 4.7475
14654 2 31.65 0.0 6.33
14655 2 30.0675 -1.5825 7.9125
14656 4 31.65 0.0 9.495
14657 4 30.0675 -1.5825 11.0775
14658 3 31.65 0.0 12.66
14659 3 30.0675 -1.5825 14.2425
14660 3 31.65 0.0 15.825
14661 4 30.0675 -1.5825 17.4075
14662 4 31.65 0.0 18.99
14663 4 30.0675 -1.5825 20.5725
14664 3 30.0675 -1.5825 23.7375
14665 1 31.65 0.0 25.32
14666 4 30.0675 -1.5825 26.9025
14667 2 31.65 0.0 28.485
14668 1 30.0675 -1.5825 30.0675
14669 4 31.65 0.0 31.65
14670 3 30.0675 1.5825 -30.0675
14671 3 31.65 3.165 -28.485
14672 3 30.0675 1.5825 -26.9025
14673 1 31.65 3.165 -25.32
14674 4 30.0675 1.5825 -23.7375
14675 4 31.65 3.165 -22.155
14676 2 30.0675 1.5825 -20.5725
14677 1 31.65 3.165 -18.99
14678 2 30.0675 1.5825 -17.4075
14679 4 31.65 3.165 -15.825
14680 4 30.0675 1.5825 -14.2425
14681 2 31.65 3.165 -12.66
14682 2 30.0675 1.5825 -11.0775
14683 3 31.65 3.165 -9.495
14684 2 30.0675 1.5825 -7.9125
14685 2 31.65 3.165 -6.33
14686 1 30.0675 1.5825 -4.7475
14687 2 31.65 3.165 -3.165
14688 4 30.0675 1.5825 -1.5825
14689 2 30.0675 1.5825 1.5825
14690 1 31.65 3.165 3.165
14691 1 30.0675 1.5825 4.7475
14692 1 31.65 3.165 6.33
14693 3 30.0675 1.5825 7.9125
14694 1 31.65 3.165 9.495
14695 3 30.0675 1.5825 11.0775
14696 4 31.65 3.165 12.66
14697 3 30.0675 1.5825 14.2425
14698 2 31.65 3.165 15.825
14699 4 30.0675 1.5825 17.4075
14700 4 31.65 3.165 18.99
14701 4 30.0675 1.5825 20.5725
14702 4 31.65 3.165 22.155
14703 2 30.0675 1.5825 23.7375
14704 2 31.65 3.165 25.32
14705 4 30.0675 1.5825 26.9025
14706 3 31.65 3.165 28.485
14707 2 30.0675 1.5825 30.0675
14708 1 31.65 3.165 31.65
14709 2 30.0675 4.7475 -30.0675
14710 1 31.65 6.33 -28.485
14711 2 30.0675 4.7475 -26.9025
14712 4 31.65 6.33 -25.32
14713 3 30.0675 4.7475 -23.7375
14714 4 31.65 6.33 -22.155
14715 4 30.0675 4.7475 -20.5725
14716 3 31.65 6.33 -18.99
14717 2 30.0675 4.7475 -17.4075
14718 1 31.65 6.33 -15.825
14719 2 30.0675 4.7475 -14.2425
14720 1 31.65 6.33 -12.66
14721 3 30.0675 4.7475 -11.0775
14722 2 31.65 6.33 -9.495
14723 3 30.0675 4.7475 -7.9125
14724 4 31.65 6.33 -6.33
14725 1 30.0675 4.7475 -4.7475
14726 1 31.65 6.33 -3.165
14727 2 31.65 6.33 0.0
14728 4 30.0675 4.7475 1.5825
14729 3 31.65 6.33 3.165
14730 3 30.0675 4.7475 4.7475
14731 4 31.65 6.33 6.33
14732 3 30.0675 4.7475 7.9125
14733 2 31.65 6.33 9.495
14734 4 30.0675 4.7475 11.0775
14735 3 30.0675 4.7475 14.2425
14736 1 30.0675 4.7475 17.4075
14737 4 31.65 6.33 18.99
14738 1 30.0675 4.7475 20.5725
14739 4 31.65 6.33 22.155
14740 1 30.0675 4.7475 23.7375
14741 2 31.65 6.33 25.32
14742 3 30.0675 4.7475 26.9025
14743 1 31.65 6.33 28.485
14744 1 30.0675 4.7475 30.0675
14745 2 31.65 6.33 31.65
14746 2 31.65 9.495 -28.485
14747 3 30.0675 7.9125 -26.9025
14748 3 31.65 9.495 -25.32
14749 3 30.0675 7.9125 -23.7375
14750 1 31.65 9.495 -22.155
14751 3 30.0675 7.9125 -20.5725
14752 4 31.65 9.495 -18.99
14753 4 30.0675 7.9125 -17.4075
14754 2 31.65 9.495 -15.825
14755 2 30.0675 7.9125 -14.2425
14756 3 31.65 9.495 -12.66
14757 2 30.0675 7.9125 -11.0775
14758 2 31.65 9.495 -9.495
14759 3 30.0675 7.9125 -7.9125
14760 3 31.65 9.495 -6.33
14761 3 30.0675 7.9125 -4.7475
14762 3 31.65 9.495 -3.165
14763 1 30.0675 7.9125 -1.5825
14764 4 31.65 9.495 0.0
14765 4 30.0675 7.9125 1.5825
14766 1 31.65 9.495 3.165
14767 3 30.0675 7.9125 4.7475
14768 4 31.65 9.495 6.33
14769 1 30.0675 7.9125 7.9125
14770 2 31.65 9.495 9.495
14771 2 30.0675 7.9125 11.0775
14772 3 31.65 9.495 12.66
14773 4 30.0675 7.9125 14.2425
14774 1 31.65 9.495 15.825
14775 1 31.65 9.495 18.99
14776 1 30.0675 7.9125 20.5725
14777 2 31.65 9.495 22.155
14778 2 31.65 9.495 25.32
14779 4 30.0675 7.9125 26.9025
14780 3 31.65 9.495 28.485
14781 1 30.0675 7.9125 30.0675
14782 1 31.65 9.495 31.65
14783 3 30.0675 11.0775 -30.0675
14784 3 31.65 12.66 -28.485
14785 3 30.0675 11.0775 -26.9025
14786 3 30.0675 11.0775 -23.7375
14787 2 31.65 12.66 -22.155
14788 2 30.0675 11.0775 -20.5725
14789 4 31.65 12.66 -18.99
14790 3 30.0675 11.0775 -17.4075
14791 4 31.65 12.66 -15.825
14792 4 30.0675 11.0775 -14.2425
14793 4 31.65 12.66 -12.66
14794 1 30.0675 11.0775 -11.0775
14795 4 31.65 12.66 -9.495
14796 2 30.0675 11.0775 -7.9125
14797 1 31.65 12.66 -6.33
14798 1 30.0675 11.0775 -4.7475
14799 3 31.65 12.66 -3.165
14800 4 30.0675 11.0775 -1.5825
14801 3 31.65 12.66 0.0
14802 1 30.0675 11.0775 1.5825
14803 2 31.65 12.66 3.165
14804 1 30.0675 11.0775 4.7475
14805 1 31.65 12.66 6.33
14806 3 30.0675 11.0775 7.9125
14807 2 31.65 12.66 9.495
14808 3 30.0675 11.0775 11.0775
14809 1 30.0675 11.0775 14.2425
14810 2 30.0675 11.0775 17.4075
14811 1 31.65 12.66 18.99
14812 1 30.0675 11.0775 20.5725
14813 1 31.65 12.66 22.155
14814 2 30.0675 11.0775 23.7375
14815 3 31.65 12.66 25.32
14816 2 30.0675 11.0775 26.9025
14817 1 30.0675 11.0775 30.0675
14818 2 31.65 12.66 31.65
14819 2 30.0675 14.2425 -30.0675
14820 3 31.65 15.825 -28.485
14821 3 30.0675 14.2425 -26.9025
14822 3 31.65 15.825 -25.32
14823 2 30.0675 14.2425 -23.7375
14824 4 31.65 15.825 -22.155
14825 1 30.0675 14.2425 -20.5725
14826 3 31.65 15.825 -18.99
14827 1 31.65 15.825 -15.825
14828 3 30.0675 14.2425 -14.2425
14829 1 31.65 15.825 -12.66
14830 1 30.0675 14.2425 -11.0775
14831 1 31.65 15.825 -9.495
14832 4 30.0675 14.2425 -7.9125
14833 3 31.65 15.825 -6.33
14834 1 30.0675 14.2425 -4.7475
14835 2 31.65 15.825 -3.165
14836 4 30.0675 14.2425 -1.5825
14837 4 31.65 15.825 0.0
14838 3 30.0675 14.2425 1.5825
14839 2 31.65 15.825 3.165
14840 4 30.0675 14.2425 4.7475
14841 1 31.65 15.825 6.33
14842 4 30.0675 14.2425 7.9125
14843 1 31.65 15.825 9.495
14844 1 30.0675 14.2425 11.0775
14845 2 31.65 15.825 12.66
14846 1 30.0675 14.2425 14.2425
14847 2 30.0675 14.2425 17.4075
14848 4 31.65 15.825 18.99
14849 3 30.0675 14.2425 20.5725
14850 1 31.65 15.825 22.155
14851 1 31.65 15.825 25.32
14852 2 30.0675 14.2425 26.9025
14853 2 31.65 15.825 28.485
14854 2 30.0675 14.2425 30.0675
14855 1 31.65 15.825 31.65
14856 3 30.0675 17.4075 -30.0675
14857 2 31.65 18.99 -28.485
14858 2 30.0675 17.4075 -26.9025
14859 1 31.65 18.99 -25.32
14860 3 30.0675 17.4075 -23.7375
14861 2 31.65 18.99 -22.155
14862 3 30.0675 17.4075 -17.4075
14863 4 31.65 18.99 -15.825
14864 1 30.0675 17.4075 -14.2425
14865 3 31.65 18.99 -12.66
14866 1 30.0675 17.4075 -11.0775
14867 3 31.65 18.99 -9.495
14868 1 30.0675 17.4075 -7.9125
14869 2 31.65 18.99 -6.33
14870 1 30.0675 17.4075 -4.7475
14871 4 31.65 18.99 -3.165
14872 1 30.0675 17.4075 -1.5825
14873 3 31.65 18.99 0.0
14874 4 30.0675 17.4075 1.5825
14875 1 31.65 18.99 3.165
14876 4 30.0675 17.4075 4.7475
14877 3 31.65 18.99 6.33
14878 2 30.0675 17.4075 7.9125
14879 4 31.65 18.99 9.495
14880 2 30.0675 17.4075 11.0775
14881 2 31.65 18.99 12.66
14882 3 30.0675 17.4075 14.2425
14883 4 31.65 18.99 15.825
14884 4 30.0675 17.4075 17.4075
14885 1 31.65 18.99 18.99
14886 1 30.0675 17.4075 20.5725
14887 1 31.65 18.99 22.155
14888 4 30.0675 17.4075 23.7375
14889 4 31.65 18.99 25.32
14890 3 30.0675 17.4075 26.9025
14891 3 31.65 18.99 28.485
14892 2 30.0675 17.4075 30.0675
14893 2 31.65 18.99 31.65
14894 2 31.65 22.155 -28.485
14895 4 30.0675 20.5725 -26.9025
14896 4 31.65 22.155 -25.32
14897 4 30.0675 20.5725 -23.7375
14898 1 31.65 22.155 -22.155
14899 4 30.0675 20.5725 -20.5725
14900 3 31.65 22.155 -18.99
14901 3 30.0675 20.5725 -17.4075
14902 2 30.0675 20.5725 -14.2425
14903 4 31.65 22.155 -12.66
14904 4 30.0675 20.5725 -11.0775
14905 3 30.0675 20.5725 -7.9125
14906 4 31.65 22.155 -6.33
14907 3 30.0675 20.5725 -4.7475
14908 4 31.65 22.155 -3.165
14909 4 30.0675 20.5725 -1.5825
14910 1 31.65 22.155 0.0
14911 1 30.0675 20.5725 1.5825
14912 2 31.65 22.155 3.165
14913 1 30.0675 20.5725 4.7475
14914 3 31.65 22.155 6.33
14915 4 30.0675 20.5725 7.9125
14916 3 31.65 22.155 9.495
14917 4 30.0675 20.5725 11.0775
14918 1 31.65 22.155 12.66
14919 3 30.0675 20.5725 14.2425
14920 2 31.65 22.155 15.825
14921 2 31.65 22.155 18.99
14922 2 30.0675 20.5725 20.5725
14923 4 31.65 22.155 22.155
14924 3 30.0675 20.5725 23.7375
14925 3 30.0675 20.5725 26.9025
14926 3 31.65 22.155 28.485
14927 1 30.0675 20.5725 30.0675
14928 1 31.65 22.155 31.65
14929 4 30.0675 23.7375 -30.0675
14930 4 31.65 25.32 -28.485
14931 3 30.0675 23.7375 -26.9025
14932 2 31.65 25.32 -25.32
14933 1 30.0675 23.7375 -23.7375
14934 3 31.65 25.32 -22.155
14935 3 30.0675 23.7375 -20.5725
14936 1 31.65 25.32 -18.99
14937 3 30.0675 23.7375 -17.4075
14938 4 31.65 25.32 -15.825
14939 3 30.0675 23.7375 -14.2425
14940 2 31.65 25.32 -12.66
14941 4 30.0675 23.7375 -11.0775
14942 2 30.0675 23.7375 -7.9125
14943 1 31.65 25.32 -6.33
14944 4 30.0675 23.7375 -4.7475
14945 3 30.0675 23.7375 -1.5825
14946 3 31.65 25.32 0.0
14947 1 30.0675 23.7375 1.5825
14948 1 31.65 25.32 3.165
14949 1 30.0675 23.7375 4.7475
14950 3 31.65 25.32 6.33
14951 2 30.0675 23.7375 7.9125
14952 2 31.65 25.32 9.495
14953 4 30.0675 23.7375 11.0775
14954 4 31.65 25.32 12.66
14955 2 30.0675 23.7375 14.2425
14956 3 31.65 25.32 15.825
14957 4 30.0675 23.7375 17.4075
14958 2 31.65 25.32 18.99
14959 2 30.0675 23.7375 20.5725
14960 4 31.65 25.32 22.155
14961 1 30.0675 23.7375 23.7375
14962 3 31.65 25.32 25.32
14963 2 30.0675 23.7375 26.9025
14964 3 31.65 25.32 28.485
14965 4 30.0675 23.7375 30.0675
14966 4 31.65 25.32 31.65
14967 4 30.0675 26.9025 -30.0675
14968 4 31.65 28.485 -28.485
14969 1 30.0675 26.9025 -26.9025
14970 3 31.65 28.485 -25.32
14971 4 30.0675 26.9025 -23.7375
14972 4 31.65 28.485 -22.155
14973 4 31.65 28.485 -18.99
14974 4 30.0675 26.9025 -17.4075
14975 4 31.65 28.485 -15.825
14976 1 30.0675 26.9025 -14.2425
14977 2 31.65 28.485 -12.66
14978 1 30.0675 26.9025 -11.0775
14979 4 31.65 28.485 -9.495
14980 1 30.0675 26.9025 -7.9125
14981 3 31.65 28.485 -6.33
14982 3 30.0675 26.9025 -4.7475
14983 4 31.65 28.485 -3.165
14984 3 30.0675 26.9025 -1.5825
14985 3 31.65 28.485 0.0
14986 1 30.0675 26.9025 1.5825
14987 4 31.65 28.485 3.165
14988 1 30.0675 26.9025 4.7475
14989 2 31.65 28.485 6.33
14990 3 30.0675 26.9025 7.9125
14991 1 31.65 28.485 9.495
14992 1 30.0675 26.9025 11.0775
14993 3 31.65 28.485 12.66
14994 3 30.0675 26.9025 14.2425
14995 3 31.65 28.485 15.825
14996 1 30.0675 26.9025 17.4075
14997 3 31.65 28.485 18.99
14998 3 30.0675 26.9025 20.5725
14999 4 31.65 28.485 22.155
15000 1 30.0675 26.9025 23.7375
15001 1 31.65 28.485 25.32
15002 2 30.0675 26.9025 26.9025
15003 2 31.65 28.485 28.485
15004 4 30.0675 26.9025 30.0675
15005 1 31.65 28.485 31.65
15006 4 30.0675 30.0675 -30.0675
15007 1 31.65 31.65 -28.485
15008 1 31.65 31.65 -25.32
15009 4 30.0675 30.0675 -23.7375
15010 1 31.65 31.65 -22.155
15011 4 30.0675 30.0675 -20.5725
15012 2 31.65 31.65 -18.99
15013 2 30.0675 30.0675 -17.4075
15014 3 31.65 31.65 -15.825
15015 3 30.0675 30.0675 -14.2425
15016 4 30.0675 30.0675 -11.0775
15017 2 31.65 31.65 -9.495
15018 1 30.0675 30.0675 -7.9125
15019 1 31.65 31.65 -6.33
15020 1 30.0675 30.0675 -4.7475
15021 4 31.65 31.65 -3.165
15022 4 30.0675 30.0675 -1.5825
15023 4 30.0675 30.0675 1.5825
15024 3 31.65 31.65 3.165
15025 4 30.0675 30.0675 4.7475
15026 3 31.65 31.65 6.33
15027 1 30.0675 30.0675 7.9125
15028 1 31.65 31.65 9.495
15029 4 30.0675 30.0675 11.0775
15030 3 31.65 31.65 12.66
15031 4 30.0675 30.0675 14.2425
15032 3 31.65 31.65 15.825
15033 1 30.0675 30.0675 17.4075
15034 2 31.65 31.65 18.99
15035 1 30.0675 30.0675 20.5725
15036 4 31.65 31.65 22.155
15037 4 30.0675 30.0675 23.7375
15038 1 31.65 31.65 25.32
15039 2 30.0675 30.0675 26.9025
15040 2 30.0675 30.0675 30.0675
